# NB_STEPS 3000
# UP_FREQ 1000
# TEMP 1.000000
# LAMBDA 0.010000
# ID_THRES 1.000000
# ALPHA 1.000000
0 0 A A -0.000459
0 0 C C -0.004718
0 0 U U -0.002219
0 0 G G 0.001914
0 0 - - 0.012594
0 1 A A -0.056639
0 1 A C 0.295686
0 1 A U -0.001937
0 1 A G 0.002370
0 1 A - 0.004855
0 1 C A -0.009610
0 1 C C 0.150869
0 1 C U 0.002613
0 1 C G -0.006528
0 1 C - 0.000005
0 1 U A 0.003627
0 1 U C -0.569951
0 1 U U 0.070482
0 1 U G 0.001921
0 1 U - 0.000009
0 1 G A 0.060030
0 1 G C 0.005670
0 1 G U -0.012268
0 1 G G 0.000523
0 1 G - 0.000461
0 1 - A 0.001290
0 1 - C 0.000746
0 1 - U 0.000007
0 1 - G 0.000009
0 1 - - -0.000008
0 2 A A 0.025571
0 2 A C -0.000193
0 2 A U -0.062719
0 2 A G 0.001094
0 2 A - 0.000010
0 2 C A -0.088348
0 2 C C 0.000005
0 2 C U 0.000596
0 2 C G 0.302886
0 2 C - 0.000008
0 2 U A -0.005634
0 2 U C 0.000799
0 2 U U -0.004050
0 2 U G -0.056017
0 2 U - -0.000002
0 2 G A -0.000863
0 2 G C 0.000002
0 2 G U 0.227900
0 2 G G -0.365211
0 2 G - 0.000006
0 2 - A 0.000691
0 2 - C 0.000001
0 2 - U 0.000007
0 2 - G -0.000004
0 2 - - -0.000009
0 3 A A -0.000024
0 3 A C 0.003212
0 3 A U -0.136681
0 3 A G 0.159829
0 3 A - 0.000011
0 3 C A 0.000661
0 3 C C 0.053972
0 3 C U 0.079835
0 3 C G -0.285474
0 3 C - 0.000002
0 3 U A 0.000445
0 3 U C 0.116172
0 3 U U 0.006151
0 3 U G -0.002583
0 3 U - 0.000008
0 3 G A 0.020566
0 3 G C -0.184074
0 3 G U -0.004339
0 3 G G 0.073445
0 3 G - 0.000415
0 3 - A 0.000005
0 3 - C -0.000001
0 3 - U 0.022891
0 3 - G 0.000005
0 3 - - -0.000006
0 4 A A 0.013650
0 4 A C 0.017507
0 4 A U -0.000742
0 4 A G -0.128274
0 4 A - 0.000861
0 4 C A 0.000650
0 4 C C -0.017219
0 4 C U -0.000170
0 4 C G 0.001282
0 4 C - 0.000008
0 4 U A 0.000899
0 4 U C 0.002930
0 4 U U -0.043555
0 4 U G 0.021472
0 4 U - 0.000012
0 4 G A -0.074217
0 4 G C -0.005128
0 4 G U 0.072647
0 4 G G 0.021894
0 4 G - 0.000617
0 4 - A -0.000005
0 4 - C 0.044048
0 4 - U 0.000012
0 4 - G -0.000004
0 4 - - -0.000001
0 5 A A -0.000008
0 5 A C -0.082676
0 5 A U 0.017529
0 5 A G 0.000002
0 5 A - -0.000005
0 5 C A -0.000003
0 5 C C 0.009135
0 5 C U -0.015822
0 5 C G 0.000011
0 5 C - 0.001094
0 5 U A 0.000430
0 5 U C 0.018609
0 5 U U -0.135125
0 5 U G 0.000882
0 5 U - 0.000725
0 5 G A 0.000011
0 5 G C 0.004963
0 5 G U 0.034286
0 5 G G 0.000000
0 5 G - 0.001935
0 5 - A 0.000010
0 5 - C 0.000007
0 5 - U 0.048404
0 5 - G 0.000008
0 5 - - -0.000006
0 6 A A 0.000005
0 6 A C 0.001446
0 6 A U -0.001808
0 6 A G 0.000804
0 6 A - -0.000007
0 6 C A 0.000007
0 6 C C -0.113840
0 6 C U 0.051491
0 6 C G -0.000006
0 6 C - -0.000003
0 6 U A -0.000010
0 6 U C 0.000770
0 6 U U -0.076353
0 6 U G -0.000002
0 6 U - 0.000000
0 6 G A 0.000004
0 6 G C 0.044931
0 6 G U -0.005987
0 6 G G -0.000005
0 6 G - -0.000010
0 6 - A -0.000009
0 6 - C 0.000011
0 6 - U 0.071135
0 6 - G 0.000009
0 6 - - -0.000004
0 7 A A 0.000735
0 7 A C -0.000538
0 7 A U -0.007367
0 7 A G 0.001864
0 7 A - 0.000002
0 7 C A 0.000004
0 7 C C -0.005190
0 7 C U 0.000618
0 7 C G -0.000006
0 7 C - -0.000007
0 7 U A -0.000010
0 7 U C -0.002258
0 7 U U -0.000352
0 7 U G 0.000858
0 7 U - -0.000010
0 7 G A -0.000003
0 7 G C -0.000380
0 7 G U 0.000000
0 7 G G 0.000206
0 7 G - 0.000002
0 7 - A -0.000006
0 7 - C 0.020504
0 7 - U 0.000004
0 7 - G -0.000006
0 7 - - 0.000001
0 8 A A 0.007003
0 8 A C -0.070931
0 8 A U -0.000003
0 8 A G 0.036495
0 8 A - 0.000945
0 8 C A 0.000098
0 8 C C 0.009045
0 8 C U 0.000008
0 8 C G -0.286418
0 8 C - 0.000004
0 8 U A -0.131626
0 8 U C 0.027423
0 8 U U 0.000784
0 8 U G -0.080098
0 8 U - -0.000001
0 8 G A 0.003756
0 8 G C 0.002101
0 8 G U -0.000014
0 8 G G 0.400213
0 8 G - 0.000779
0 8 - A 0.002476
0 8 - C 0.000006
0 8 - U 0.000011
0 8 - G 0.004528
0 8 - - -0.000003
0 9 A A -0.000012
0 9 A C 0.000009
0 9 A U 0.000774
0 9 A G -0.013281
0 9 A - -0.000006
0 9 C A 0.000001
0 9 C C 0.000003
0 9 C U 0.000009
0 9 C G -0.003597
0 9 C - -0.000001
0 9 U A -0.016232
0 9 U C -0.000006
0 9 U U -0.000003
0 9 U G -0.000702
0 9 U - -0.000002
0 9 G A -0.000000
0 9 G C 0.000003
0 9 G U -0.000000
0 9 G G 0.002763
0 9 G - -0.000006
0 9 - A -0.000001
0 9 - C 0.000008
0 9 - U 0.000009
0 9 - G 0.008339
0 9 - - -0.000001
0 10 A A 0.000003
0 10 A C -0.000007
0 10 A U 0.000000
0 10 A G -0.002626
0 10 A - 0.000975
0 10 C A -0.000008
0 10 C C -0.000004
0 10 C U 0.000002
0 10 C G -0.004322
0 10 C - -0.000009
0 10 U A 0.000005
0 10 U C 0.000823
0 10 U U 0.000006
0 10 U G -0.003527
0 10 U - 0.000001
0 10 G A -0.000011
0 10 G C -0.000003
0 10 G U -0.000003
0 10 G G 0.002622
0 10 G - -0.000003
0 10 - A -0.000003
0 10 - C -0.000003
0 10 - U -0.000003
0 10 - G 0.017939
0 10 - - -0.000003
0 11 A A -0.000009
0 11 A C 0.000004
0 11 A U 0.000007
0 11 A G 0.000082
0 11 A - -0.000003
0 11 C A 0.000007
0 11 C C -0.000008
0 11 C U -0.000006
0 11 C G -0.004054
0 11 C - 0.000009
0 11 U A -0.000003
0 11 U C -0.000010
0 11 U U 0.000006
0 11 U G -0.002754
0 11 U - 0.000003
0 11 G A -0.000007
0 11 G C -0.000003
0 11 G U 0.000002
0 11 G G -0.001040
0 11 G - 0.001155
0 11 - A -0.000007
0 11 - C -0.000007
0 11 - U -0.000007
0 11 - G 0.018801
0 11 - - -0.000007
0 12 A A 0.005543
0 12 A C -0.000745
0 12 A U -0.002628
0 12 A G -0.008120
0 12 A - 0.000164
0 12 C A 0.000004
0 12 C C 0.001189
0 12 C U -0.008496
0 12 C G 0.006420
0 12 C - -0.000027
0 12 U A 0.001173
0 12 U C 0.000888
0 12 U U -0.005384
0 12 U G 0.016710
0 12 U - -0.000008
0 12 G A 0.001195
0 12 G C -0.035701
0 12 G U 0.035328
0 12 G G -0.021819
0 12 G - -0.000005
0 12 - A 0.000005
0 12 - C 0.001776
0 12 - U -0.000010
0 12 - G 0.000007
0 12 - - 0.000005
0 13 A A -0.004833
0 13 A C -0.001698
0 13 A U -0.012279
0 13 A G 0.006802
0 13 A - 0.019240
0 13 C A -0.004587
0 13 C C 0.015993
0 13 C U 0.073910
0 13 C G 0.000098
0 13 C - -0.164154
0 13 U A 0.035420
0 13 U C -0.001019
0 13 U U 0.003810
0 13 U G -0.006164
0 13 U - 0.000965
0 13 G A -0.000395
0 13 G C 0.007547
0 13 G U -0.009281
0 13 G G 0.000067
0 13 G - -0.000005
0 13 - A 0.007647
0 13 - C -0.000000
0 13 - U -0.000002
0 13 - G -0.000001
0 13 - - -0.000006
0 14 A A -0.045193
0 14 A C -0.000721
0 14 A U -0.000010
0 14 A G 0.000774
0 14 A - 0.002277
0 14 C A 0.001436
0 14 C C -0.132185
0 14 C U 0.001237
0 14 C G -0.005078
0 14 C - -0.000007
0 14 U A -0.007543
0 14 U C 0.281585
0 14 U U -0.000015
0 14 U G -0.104595
0 14 U - 0.000704
0 14 G A 0.002589
0 14 G C 0.004272
0 14 G U -0.000004
0 14 G G -0.001889
0 14 G - 0.000323
0 14 - A -0.000003
0 14 - C -0.000008
0 14 - U -0.000005
0 14 - G 0.002764
0 14 - - -0.000005
0 15 A A 0.000951
0 15 A C -0.000012
0 15 A U 0.000869
0 15 A G -0.004065
0 15 A - 0.000005
0 15 C A -0.000008
0 15 C C -0.000001
0 15 C U -0.000001
0 15 C G -0.002635
0 15 C - 0.000008
0 15 U A 0.000006
0 15 U C 0.000259
0 15 U U 0.000793
0 15 U G -0.007043
0 15 U - 0.000690
0 15 G A 0.000007
0 15 G C 0.001217
0 15 G U -0.000008
0 15 G G -0.006595
0 15 G - 0.000405
0 15 - A -0.000002
0 15 - C -0.000002
0 15 - U -0.000002
0 15 - G 0.021133
0 15 - - -0.000002
0 16 A A 0.000003
0 16 A C 0.000002
0 16 A U 0.000535
0 16 A G -0.008259
0 16 A - 0.000004
0 16 C A 0.000005
0 16 C C 0.000001
0 16 C U -0.000007
0 16 C G -0.004967
0 16 C - -0.000008
0 16 U A 0.000006
0 16 U C 0.000001
0 16 U U -0.000004
0 16 U G -0.002707
0 16 U - 0.000004
0 16 G A -0.000002
0 16 G C -0.000006
0 16 G U 0.000004
0 16 G G 0.002766
0 16 G - -0.000002
0 16 - A -0.000005
0 16 - C -0.000005
0 16 - U -0.000005
0 16 - G 0.020260
0 16 - - -0.000005
0 17 A A 0.001571
0 17 A C 0.000162
0 17 A U -0.000833
0 17 A G 0.000001
0 17 A - -0.000006
0 17 C A -0.000007
0 17 C C 0.000004
0 17 C U -0.005427
0 17 C G 0.000005
0 17 C - -0.000007
0 17 U A -0.000011
0 17 U C -0.000467
0 17 U U -0.005303
0 17 U G 0.000341
0 17 U - 0.000002
0 17 G A 0.000006
0 17 G C -0.000001
0 17 G U 0.001099
0 17 G G 0.000002
0 17 G - -0.000004
0 17 - A -0.000010
0 17 - C 0.000007
0 17 - U 0.020666
0 17 - G -0.000010
0 17 - - -0.000010
0 18 A A 0.000000
0 18 A C 0.000006
0 18 A U -0.000011
0 18 A G 0.000876
0 18 A - 0.000005
0 18 C A 0.000009
0 18 C C -0.000010
0 18 C U -0.000002
0 18 C G -0.005651
0 18 C - 0.000004
0 18 U A -0.000004
0 18 U C -0.000009
0 18 U U -0.000007
0 18 U G -0.003500
0 18 U - 0.000843
0 18 G A -0.000000
0 18 G C 0.000007
0 18 G U -0.000007
0 18 G G 0.002612
0 18 G - 0.000006
0 18 - A -0.000005
0 18 - C -0.000005
0 18 - U -0.000005
0 18 - G 0.017028
0 18 - - -0.000005
0 19 A A 0.007003
0 19 A C -0.124563
0 19 A U 0.001283
0 19 A G 0.003996
0 19 A - -0.000008
0 19 C A -0.060326
0 19 C C 0.006354
0 19 C U 0.006680
0 19 C G -0.000007
0 19 C - -0.000003
0 19 U A -0.001974
0 19 U C 0.008391
0 19 U U -0.000897
0 19 U G 0.004217
0 19 U - 0.000001
0 19 G A -0.010145
0 19 G C 0.086493
0 19 G U -0.002157
0 19 G G 0.000535
0 19 G - 0.000001
0 19 - A 0.000620
0 19 - C 0.000779
0 19 - U 0.001189
0 19 - G 0.000006
0 19 - - 0.000003
0 20 A A 0.002138
0 20 A C 0.001014
0 20 A U 0.000424
0 20 A G -0.000438
0 20 A - -0.001165
0 20 C A -0.020791
0 20 C C 0.000004
0 20 C U 0.000005
0 20 C G 0.000986
0 20 C - 0.008075
0 20 U A -0.087911
0 20 U C 0.001019
0 20 U U 0.000504
0 20 U G 0.001500
0 20 U - -0.000010
0 20 G A 0.000827
0 20 G C 0.000406
0 20 G U 0.000191
0 20 G G 0.000496
0 20 G - 0.000986
0 20 - A 0.043839
0 20 - C 0.000731
0 20 - U -0.000003
0 20 - G 0.000012
0 20 - - -0.000003
0 21 A A 0.000008
0 21 A C 0.000515
0 21 A U -0.000014
0 21 A G 0.000003
0 21 A - -0.002338
0 21 C A -0.005614
0 21 C C 0.000757
0 21 C U 0.000009
0 21 C G 0.000007
0 21 C - -0.000006
0 21 U A -0.001371
0 21 U C 0.000190
0 21 U U -0.000012
0 21 U G -0.000010
0 21 U - -0.000240
0 21 G A 0.001313
0 21 G C 0.000003
0 21 G U 0.000004
0 21 G G 0.000008
0 21 G - 0.001760
0 21 - A 0.010545
0 21 - C 0.000001
0 21 - U 0.000006
0 21 - G 0.000001
0 21 - - 0.000005
0 22 A A 0.014781
0 22 A C 0.002360
0 22 A U -0.024593
0 22 A G -0.008396
0 22 A - -0.002900
0 22 C A 0.000847
0 22 C C 0.000599
0 22 C U -0.006307
0 22 C G 0.003008
0 22 C - 0.000634
0 22 U A -0.011229
0 22 U C 0.000802
0 22 U U -0.000342
0 22 U G -0.000767
0 22 U - 0.000174
0 22 G A 0.000959
0 22 G C 0.000687
0 22 G U -0.003582
0 22 G G 0.003197
0 22 G - 0.001760
0 22 - A -0.000001
0 22 - C 0.000007
0 22 - U 0.004673
0 22 - G -0.000008
0 22 - - -0.000008
0 23 A A -0.000006
0 23 A C 0.000043
0 23 A U 0.002076
0 23 A G 0.000726
0 23 A - -0.002831
0 23 C A -0.000009
0 23 C C -0.000011
0 23 C U -0.004309
0 23 C G -0.000007
0 23 C - 0.000566
0 23 U A -0.000009
0 23 U C 0.000004
0 23 U U -0.004368
0 23 U G -0.000001
0 23 U - 0.000312
0 23 G A -0.000010
0 23 G C 0.000654
0 23 G U -0.001170
0 23 G G 0.000001
0 23 G - 0.002135
0 23 - A 0.000650
0 23 - C -0.000002
0 23 - U 0.010658
0 23 - G -0.000008
0 23 - - 0.000005
0 24 A A 0.000892
0 24 A C -0.003104
0 24 A U -0.000011
0 24 A G -0.000001
0 24 A - 0.000009
0 24 C A 0.000009
0 24 C C -0.003876
0 24 C U -0.000003
0 24 C G 0.000001
0 24 C - 0.000005
0 24 U A 0.000698
0 24 U C -0.002710
0 24 U U -0.000006
0 24 U G -0.000002
0 24 U - -0.000009
0 24 G A 0.000004
0 24 G C 0.000937
0 24 G U -0.000010
0 24 G G 0.000002
0 24 G - 0.000002
0 24 - A 0.000009
0 24 - C 0.017742
0 24 - U 0.000009
0 24 - G 0.000009
0 24 - - 0.000009
0 25 A A 0.000007
0 25 A C 0.002776
0 25 A U -0.000004
0 25 A G -0.000008
0 25 A - 0.000008
0 25 C A -0.000001
0 25 C C -0.003282
0 25 C U 0.000004
0 25 C G 0.000002
0 25 C - 0.000002
0 25 U A -0.000005
0 25 U C -0.025185
0 25 U U 0.000757
0 25 U G 0.000004
0 25 U - 0.000009
0 25 G A -0.000008
0 25 G C 0.000333
0 25 G U 0.000175
0 25 G G 0.000005
0 25 G - -0.000006
0 25 - A 0.000002
0 25 - C 0.017330
0 25 - U -0.000009
0 25 - G 0.000002
0 25 - - 0.000009
0 26 A A 0.001715
0 26 A C 0.003388
0 26 A U -0.005607
0 26 A G -0.012984
0 26 A - -0.000011
0 26 C A -0.000007
0 26 C C -0.005205
0 26 C U 0.000590
0 26 C G -0.001555
0 26 C - 0.000503
0 26 U A 0.000744
0 26 U C -0.060210
0 26 U U -0.144383
0 26 U G 0.258802
0 26 U - -0.000002
0 26 G A -0.000005
0 26 G C -0.002191
0 26 G U 0.002111
0 26 G G -0.000018
0 26 G - 0.000003
0 26 - A 0.000001
0 26 - C 0.001421
0 26 - U 0.000565
0 26 - G -0.000011
0 26 - - 0.000001
0 27 A A -0.022493
0 27 A C 0.001579
0 27 A U -0.213383
0 27 A G 0.134329
0 27 A - 0.000411
0 27 C A 0.000455
0 27 C C 0.001280
0 27 C U 0.004176
0 27 C G -0.005392
0 27 C - 0.000008
0 27 U A 0.043900
0 27 U C -0.005194
0 27 U U 0.007657
0 27 U G -0.022470
0 27 U - 0.000463
0 27 G A 0.005358
0 27 G C 0.000169
0 27 G U -0.000731
0 27 G G 0.002545
0 27 G - 0.000011
0 27 - A 0.000062
0 27 - C 0.000010
0 27 - U 0.000965
0 27 - G 0.000073
0 27 - - 0.000006
0 28 A A -0.001243
0 28 A C -0.000008
0 28 A U 0.000001
0 28 A G 0.000700
0 28 A - 0.000536
0 28 C A 0.000450
0 28 C C 0.000006
0 28 C U 0.000005
0 28 C G -0.000163
0 28 C - 0.000011
0 28 U A -0.039174
0 28 U C 0.000664
0 28 U U 0.000007
0 28 U G 0.001931
0 28 U - 0.000850
0 28 G A -0.000031
0 28 G C 0.000002
0 28 G U 0.000011
0 28 G G 0.002213
0 28 G - -0.000009
0 28 - A 0.005331
0 28 - C -0.000002
0 28 - U 0.000002
0 28 - G 0.000002
0 28 - - 0.000002
0 29 A A 0.000001
0 29 A C 0.001860
0 29 A U -0.004424
0 29 A G 0.000474
0 29 A - 0.000006
0 29 C A 0.000003
0 29 C C -0.003651
0 29 C U 0.001293
0 29 C G 0.000009
0 29 C - -0.000009
0 29 U A 0.000008
0 29 U C -0.057958
0 29 U U 0.002900
0 29 U G 0.000254
0 29 U - 0.000689
0 29 G A 0.000014
0 29 G C -0.000335
0 29 G U -0.000001
0 29 G G 0.000077
0 29 G - -0.000006
0 29 - A -0.000009
0 29 - C 0.033647
0 29 - U -0.000003
0 29 - G -0.000009
0 29 - - -0.000009
0 30 A A 0.000004
0 30 A C -0.009181
0 30 A U -0.000570
0 30 A G 0.000007
0 30 A - 0.000007
0 30 C A 0.000002
0 30 C C -0.003693
0 30 C U 0.000791
0 30 C G 0.000003
0 30 C - 0.000004
0 30 U A 0.000003
0 30 U C 0.000556
0 30 U U -0.004318
0 30 U G -0.000005
0 30 U - 0.000006
0 30 G A 0.000006
0 30 G C -0.002917
0 30 G U 0.001119
0 30 G G -0.000008
0 30 G - 0.000005
0 30 - A -0.000010
0 30 - C 0.027518
0 30 - U -0.000010
0 30 - G -0.000010
0 30 - - -0.000010
0 31 A A -0.000002
0 31 A C -0.000006
0 31 A U -0.000002
0 31 A G -0.000692
0 31 A - -0.000002
0 31 C A -0.000010
0 31 C C -0.000004
0 31 C U -0.000003
0 31 C G -0.004619
0 31 C - -0.000010
0 31 U A -0.000008
0 31 U C -0.000001
0 31 U U -0.000006
0 31 U G -0.002704
0 31 U - 0.000073
0 31 G A -0.000006
0 31 G C 0.000007
0 31 G U 0.000006
0 31 G G 0.002314
0 31 G - -0.000001
0 31 - A -0.000010
0 31 - C -0.000010
0 31 - U -0.000010
0 31 - G 0.010739
0 31 - - -0.000001
0 32 A A -0.245760
0 32 A C 0.000004
0 32 A U 0.000013
0 32 A G 0.068861
0 32 A - 0.001416
0 32 C A 0.000392
0 32 C C 0.000007
0 32 C U 0.000004
0 32 C G -0.002321
0 32 C - 0.000014
0 32 U A 0.096951
0 32 U C 0.000014
0 32 U U 0.000003
0 32 U G -0.130196
0 32 U - 0.000010
0 32 G A 0.000009
0 32 G C 0.000007
0 32 G U 0.000008
0 32 G G 0.004262
0 32 G - 0.000145
0 32 - A 0.000005
0 32 - C 0.000010
0 32 - U 0.000010
0 32 - G 0.100874
0 32 - - 0.000010
0 33 A A 0.000009
0 33 A C -0.000964
0 33 A U -0.025999
0 33 A G 0.000003
0 33 A - 0.000770
0 33 C A -0.000008
0 33 C C -0.012782
0 33 C U 0.011814
0 33 C G 0.000004
0 33 C - 0.000004
0 33 U A -0.000004
0 33 U C 0.005342
0 33 U U -0.018944
0 33 U G 0.000010
0 33 U - -0.000006
0 33 G A 0.000005
0 33 G C -0.020036
0 33 G U 0.002521
0 33 G G 0.000005
0 33 G - 0.000011
0 33 - A 0.000004
0 33 - C 0.027978
0 33 - U 0.000006
0 33 - G 0.000004
0 33 - - 0.000004
0 34 A A -0.004756
0 34 A C -0.000001
0 34 A U 0.000006
0 34 A G 0.002339
0 34 A - 0.000005
0 34 C A -0.000013
0 34 C C 0.000933
0 34 C U 0.000994
0 34 C G -0.007076
0 34 C - 0.000009
0 34 U A -0.009699
0 34 U C -0.000001
0 34 U U 0.000018
0 34 U G -0.000281
0 34 U - -0.000000
0 34 G A 0.000301
0 34 G C 0.000004
0 34 G U 0.000003
0 34 G G -0.016585
0 34 G - 0.000009
0 34 - A -0.000008
0 34 - C -0.000008
0 34 - U -0.000008
0 34 - G 0.024374
0 34 - - -0.000008
0 35 A A -0.000010
0 35 A C 0.000004
0 35 A U -0.000003
0 35 A G -0.004698
0 35 A - -0.000010
0 35 C A 0.000008
0 35 C C -0.000005
0 35 C U 0.000003
0 35 C G -0.004169
0 35 C - 0.000004
0 35 U A -0.000005
0 35 U C -0.000008
0 35 U U 0.000004
0 35 U G -0.002347
0 35 U - 0.000004
0 35 G A 0.000004
0 35 G C 0.000009
0 35 G U 0.000001
0 35 G G -0.000239
0 35 G - 0.000277
0 35 - A 0.000004
0 35 - C 0.000004
0 35 - U 0.000004
0 35 - G 0.018843
0 35 - - 0.000004
0 36 A A -0.000004
0 36 A C 0.000002
0 36 A U -0.001659
0 36 A G 0.000860
0 36 A - -0.000007
0 36 C A -0.000008
0 36 C C -0.000001
0 36 C U -0.004163
0 36 C G 0.000009
0 36 C - -0.000003
0 36 U A 0.000005
0 36 U C 0.000436
0 36 U U -0.003627
0 36 U G -0.000003
0 36 U - -0.000000
0 36 G A -0.000002
0 36 G C 0.000009
0 36 G U 0.002543
0 36 G G 0.000009
0 36 G - -0.000003
0 36 - A 0.000009
0 36 - C 0.000009
0 36 - U 0.021294
0 36 - G 0.000009
0 36 - - 0.000009
0 37 A A -0.156959
0 37 A C 0.001991
0 37 A U 0.034759
0 37 A G 0.020268
0 37 A - 0.000003
0 37 C A 0.035042
0 37 C C 0.001699
0 37 C U 0.001631
0 37 C G -0.035403
0 37 C - -0.000004
0 37 U A -0.004291
0 37 U C 0.000411
0 37 U U -0.030634
0 37 U G 0.020208
0 37 U - 0.000963
0 37 G A 0.006977
0 37 G C 0.000005
0 37 G U -0.000725
0 37 G G 0.001614
0 37 G - 0.000001
0 37 - A 0.002576
0 37 - C 0.000003
0 37 - U -0.000001
0 37 - G 0.001371
0 37 - - -0.000002
0 38 A A 0.005661
0 38 A C -0.004585
0 38 A U -0.163764
0 38 A G 0.020944
0 38 A - 0.004345
0 38 C A -0.003704
0 38 C C 0.000735
0 38 C U 0.000657
0 38 C G 0.001464
0 38 C - 0.000011
0 38 U A -0.013406
0 38 U C 0.014393
0 38 U U 0.014698
0 38 U G -0.000452
0 38 U - 0.000285
0 38 G A -0.008657
0 38 G C 0.003820
0 38 G U 0.002497
0 38 G G 0.044416
0 38 G - 0.000112
0 38 - A 0.001192
0 38 - C 0.000222
0 38 - U 0.000001
0 38 - G -0.000001
0 38 - - 0.000002
0 39 A A -0.019965
0 39 A C -0.000001
0 39 A U -0.000005
0 39 A G 0.000580
0 39 A - 0.000811
0 39 C A -0.005836
0 39 C C -0.000000
0 39 C U 0.000007
0 39 C G -0.000006
0 39 C - 0.000006
0 39 U A -0.003477
0 39 U C 0.000003
0 39 U U 0.000009
0 39 U G -0.000004
0 39 U - 0.000154
0 39 G A -0.000192
0 39 G C 0.001378
0 39 G U 0.000009
0 39 G G 0.000423
0 39 G - 0.000518
0 39 - A 0.016972
0 39 - C 0.000000
0 39 - U 0.000000
0 39 - G 0.000000
0 39 - - 0.000001
0 40 A A -0.000013
0 40 A C -0.000009
0 40 A U 0.000972
0 40 A G -0.000945
0 40 A - 0.000813
0 40 C A -0.000008
0 40 C C 0.000004
0 40 C U -0.000001
0 40 C G -0.031065
0 40 C - 0.000002
0 40 U A 0.000003
0 40 U C -0.000001
0 40 U U 0.000221
0 40 U G -0.002112
0 40 U - 0.000049
0 40 G A -0.000007
0 40 G C 0.000002
0 40 G U 0.000739
0 40 G G 0.000401
0 40 G - 0.000271
0 40 - A -0.000000
0 40 - C -0.000000
0 40 - U 0.000009
0 40 - G 0.030919
0 40 - - -0.000000
0 41 A A -0.000002
0 41 A C -0.000295
0 41 A U -0.014004
0 41 A G 0.000102
0 41 A - -0.000008
0 41 C A -0.000008
0 41 C C -0.012530
0 41 C U 0.000787
0 41 C G -0.000006
0 41 C - 0.001170
0 41 U A 0.000003
0 41 U C -0.002870
0 41 U U 0.001917
0 41 U G 0.000002
0 41 U - -0.000040
0 41 G A 0.000206
0 41 G C 0.014248
0 41 G U -0.002323
0 41 G G 0.000010
0 41 G - 0.000545
0 41 - A 0.000006
0 41 - C 0.000893
0 41 - U 0.000503
0 41 - G 0.000006
0 41 - - -0.000006
0 42 A A 0.000005
0 42 A C -0.012802
0 42 A U -0.000007
0 42 A G 0.000006
0 42 A - 0.000009
0 42 C A -0.000006
0 42 C C -0.004515
0 42 C U -0.000006
0 42 C G 0.000003
0 42 C - -0.000006
0 42 U A 0.000119
0 42 U C -0.003565
0 42 U U 0.000003
0 42 U G -0.000010
0 42 U - 0.000001
0 42 G A -0.000006
0 42 G C 0.002528
0 42 G U 0.000002
0 42 G G -0.000006
0 42 G - 0.000009
0 42 - A -0.000006
0 42 - C 0.020993
0 42 - U -0.000006
0 42 - G -0.000006
0 42 - - -0.000006
0 43 A A 0.000491
0 43 A C 0.001092
0 43 A U -0.000419
0 43 A G 0.000873
0 43 A - 0.000010
0 43 C A -0.000007
0 43 C C -0.007052
0 43 C U -0.000003
0 43 C G -0.000003
0 43 C - 0.000004
0 43 U A -0.000007
0 43 U C 0.000332
0 43 U U -0.006618
0 43 U G 0.000008
0 43 U - 0.000006
0 43 G A 0.000005
0 43 G C -0.020504
0 43 G U 0.000001
0 43 G G 0.000007
0 43 G - 0.000009
0 43 - A -0.000003
0 43 - C 0.022543
0 43 - U 0.000006
0 43 - G -0.000003
0 43 - - -0.000003
0 44 A A -0.000072
0 44 A C -0.000005
0 44 A U -0.000003
0 44 A G -0.000803
0 44 A - -0.000003
0 44 C A 0.010839
0 44 C C 0.000987
0 44 C U 0.000000
0 44 C G -0.013147
0 44 C - -0.000005
0 44 U A -0.047329
0 44 U C -0.000006
0 44 U U -0.000001
0 44 U G 0.000094
0 44 U - -0.000008
0 44 G A 0.002239
0 44 G C 0.000011
0 44 G U 0.000004
0 44 G G -0.000604
0 44 G - 0.000011
0 44 - A -0.000001
0 44 - C 0.000006
0 44 - U 0.000006
0 44 - G 0.023296
0 44 - - 0.000006
0 45 A A -0.000009
0 45 A C -0.001411
0 45 A U -0.018011
0 45 A G 0.000006
0 45 A - -0.000005
0 45 C A -0.000005
0 45 C C -0.017641
0 45 C U -0.000044
0 45 C G -0.000001
0 45 C - 0.000004
0 45 U A -0.000004
0 45 U C -0.003131
0 45 U U -0.006642
0 45 U G 0.000005
0 45 U - -0.000005
0 45 G A -0.000006
0 45 G C 0.000497
0 45 G U 0.000600
0 45 G G 0.000010
0 45 G - 0.000004
0 45 - A 0.000004
0 45 - C 0.021883
0 45 - U -0.000006
0 45 - G 0.000004
0 45 - - 0.000004
0 46 A A -0.000011
0 46 A C 0.000004
0 46 A U -0.000005
0 46 A G 0.003053
0 46 A - 0.000009
0 46 C A 0.000004
0 46 C C 0.000009
0 46 C U 0.000005
0 46 C G -0.008745
0 46 C - 0.000003
0 46 U A -0.073353
0 46 U C 0.000002
0 46 U U 0.000535
0 46 U G -0.002557
0 46 U - 0.000002
0 46 G A -0.000010
0 46 G C -0.000005
0 46 G U 0.002304
0 46 G G 0.000513
0 46 G - 0.000005
0 46 - A 0.000008
0 46 - C 0.000010
0 46 - U 0.000004
0 46 - G 0.037351
0 46 - - 0.000004
0 47 A A 0.001129
0 47 A C -0.000010
0 47 A U 0.000002
0 47 A G -0.000008
0 47 A - -0.000009
0 47 C A -0.004083
0 47 C C -0.000006
0 47 C U 0.000007
0 47 C G 0.000009
0 47 C - -0.000007
0 47 U A -0.002339
0 47 U C -0.000006
0 47 U U -0.000010
0 47 U G -0.000011
0 47 U - -0.000010
0 47 G A 0.000221
0 47 G C -0.000007
0 47 G U 0.000710
0 47 G G 0.000005
0 47 G - 0.000004
0 47 - A 0.016997
0 47 - C 0.000004
0 47 - U 0.000004
0 47 - G 0.000004
0 47 - - 0.000007
0 48 A A -0.000775
0 48 A C 0.021336
0 48 A U 0.000524
0 48 A G -0.115663
0 48 A - 0.000555
0 48 C A -0.000672
0 48 C C 0.024304
0 48 C U 0.000009
0 48 C G -0.001646
0 48 C - 0.000006
0 48 U A 0.000559
0 48 U C -0.051082
0 48 U U -0.000006
0 48 U G 0.078574
0 48 U - 0.000855
0 48 G A 0.000687
0 48 G C -0.008667
0 48 G U 0.000003
0 48 G G 0.001558
0 48 G - 0.000934
0 48 - A 0.000005
0 48 - C 0.008774
0 48 - U 0.000003
0 48 - G 0.000889
0 48 - - 0.000003
0 49 A A -0.000009
0 49 A C -0.011729
0 49 A U -0.000949
0 49 A G 0.000154
0 49 A - 0.000536
0 49 C A 0.000939
0 49 C C -0.009938
0 49 C U 0.044251
0 49 C G 0.000004
0 49 C - 0.000008
0 49 U A -0.000007
0 49 U C -0.002091
0 49 U U 0.000374
0 49 U G 0.000723
0 49 U - -0.000005
0 49 G A -0.000008
0 49 G C 0.006349
0 49 G U -0.070786
0 49 G G -0.000005
0 49 G - 0.000003
0 49 - A -0.000003
0 49 - C 0.015471
0 49 - U -0.000003
0 49 - G 0.000003
0 49 - - -0.000003
0 50 A A 0.000650
0 50 A C 0.029649
0 50 A U -0.107903
0 50 A G -0.010388
0 50 A - 0.000018
0 50 C A 0.000004
0 50 C C -0.009157
0 50 C U 0.000538
0 50 C G -0.000019
0 50 C - 0.002505
0 50 U A 0.001587
0 50 U C 0.006662
0 50 U U -0.014276
0 50 U G 0.002885
0 50 U - 0.000458
0 50 G A -0.000010
0 50 G C -0.012914
0 50 G U 0.068192
0 50 G G -0.000014
0 50 G - -0.002178
0 50 - A 0.000007
0 50 - C 0.010002
0 50 - U -0.000007
0 50 - G 0.000001
0 50 - - -0.000003
0 51 A A 0.024816
0 51 A C 0.002195
0 51 A U -0.038225
0 51 A G -0.008120
0 51 A - -0.000012
0 51 C A 0.007623
0 51 C C -0.000202
0 51 C U -0.004371
0 51 C G -0.000189
0 51 C - 0.000005
0 51 U A -0.042429
0 51 U C 0.000628
0 51 U U -0.003177
0 51 U G 0.058413
0 51 U - -0.000005
0 51 G A 0.001664
0 51 G C -0.000091
0 51 G U 0.049271
0 51 G G -0.035044
0 51 G - 0.000004
0 51 - A 0.000631
0 51 - C -0.000001
0 51 - U 0.000492
0 51 - G -0.000009
0 51 - - 0.000002
0 52 A A -0.019943
0 52 A C 0.027736
0 52 A U -0.025446
0 52 A G 0.001702
0 52 A - 0.000777
0 52 C A -0.000290
0 52 C C 0.001095
0 52 C U 0.021686
0 52 C G -0.002540
0 52 C - -0.000006
0 52 U A 0.010925
0 52 U C 0.094368
0 52 U U 0.000063
0 52 U G -0.052781
0 52 U - 0.000002
0 52 G A 0.001631
0 52 G C -0.182243
0 52 G U 0.006710
0 52 G G 0.050529
0 52 G - 0.000010
0 52 - A 0.000955
0 52 - C 0.000053
0 52 - U 0.000008
0 52 - G 0.000080
0 52 - - 0.000009
0 53 A A 0.002286
0 53 A C -0.009573
0 53 A U -0.075266
0 53 A G 0.063741
0 53 A - -0.000009
0 53 C A 0.012090
0 53 C C -0.002246
0 53 C U 0.003472
0 53 C G -0.128910
0 53 C - 0.000001
0 53 U A -0.000762
0 53 U C 0.008047
0 53 U U -0.079590
0 53 U G 0.000973
0 53 U - 0.001108
0 53 G A -0.008871
0 53 G C 0.000606
0 53 G U 0.194045
0 53 G G 0.001161
0 53 G - -0.000003
0 53 - A 0.000000
0 53 - C -0.000004
0 53 - U 0.000727
0 53 - G 0.000680
0 53 - - -0.000009
0 54 A A 0.008035
0 54 A C -0.000019
0 54 A U 0.000783
0 54 A G -0.008787
0 54 A - -0.000007
0 54 C A 0.002183
0 54 C C -0.000006
0 54 C U -0.000013
0 54 C G -0.003747
0 54 C - -0.000002
0 54 U A -0.109253
0 54 U C -0.000003
0 54 U U 0.001916
0 54 U G 0.014459
0 54 U - 0.000942
0 54 G A 0.002426
0 54 G C -0.000004
0 54 G U -0.000005
0 54 G G 0.001423
0 54 G - 0.000011
0 54 - A -0.000004
0 54 - C 0.000143
0 54 - U 0.000012
0 54 - G 0.024374
0 54 - - 0.000012
0 55 A A -0.000486
0 55 A C 0.001777
0 55 A U -0.000002
0 55 A G 0.001424
0 55 A - -0.000007
0 55 C A 0.053726
0 55 C C -0.034096
0 55 C U 0.000915
0 55 C G -0.002193
0 55 C - 0.000006
0 55 U A -0.000684
0 55 U C 0.000701
0 55 U U 0.001950
0 55 U G -0.021466
0 55 U - 0.000006
0 55 G A -0.106677
0 55 G C 0.053837
0 55 G U 0.000335
0 55 G G 0.005487
0 55 G - 0.000561
0 55 - A 0.000005
0 55 - C 0.001010
0 55 - U -0.000008
0 55 - G 0.000798
0 55 - - 0.000005
0 56 A A -0.007327
0 56 A C 0.000176
0 56 A U 0.001860
0 56 A G 0.002482
0 56 A - 0.000001
0 56 C A -0.010298
0 56 C C 0.000894
0 56 C U 0.050583
0 56 C G -0.000007
0 56 C - 0.000025
0 56 U A 0.004654
0 56 U C -0.009174
0 56 U U -0.006323
0 56 U G 0.000230
0 56 U - -0.000009
0 56 G A 0.098052
0 56 G C -0.154386
0 56 G U -0.001467
0 56 G G 0.000344
0 56 G - -0.000005
0 56 - A 0.000690
0 56 - C 0.000008
0 56 - U 0.000005
0 56 - G 0.000005
0 56 - - 0.000005
0 57 A A -0.001916
0 57 A C -0.000241
0 57 A U -0.168778
0 57 A G 0.142303
0 57 A - 0.000595
0 57 C A 0.001946
0 57 C C -0.000051
0 57 C U 0.049519
0 57 C G -0.000671
0 57 C - -0.000007
0 57 U A 0.030132
0 57 U C 0.000314
0 57 U U -0.000996
0 57 U G -0.033813
0 57 U - 0.000006
0 57 G A 0.000157
0 57 G C 0.000985
0 57 G U -0.090337
0 57 G G 0.003317
0 57 G - 0.000006
0 57 - A 0.000132
0 57 - C 0.000755
0 57 - U 0.006738
0 57 - G 0.000009
0 57 - - -0.000005
0 58 A A 0.000003
0 58 A C 0.000008
0 58 A U 0.000001
0 58 A G -0.006709
0 58 A - -0.000009
0 58 C A -0.000003
0 58 C C 0.000007
0 58 C U -0.000009
0 58 C G -0.004164
0 58 C - -0.000003
0 58 U A -0.000012
0 58 U C 0.001245
0 58 U U -0.000001
0 58 U G -0.003440
0 58 U - 0.000000
0 58 G A 0.000004
0 58 G C 0.000001
0 58 G U 0.000001
0 58 G G 0.002243
0 58 G - 0.000008
0 58 - A -0.000009
0 58 - C -0.000001
0 58 - U -0.000009
0 58 - G 0.016880
0 58 - - -0.000009
0 59 A A -0.005415
0 59 A C 0.000005
0 59 A U 0.000917
0 59 A G 0.000440
0 59 A - 0.000005
0 59 C A -0.005017
0 59 C C -0.000010
0 59 C U 0.000009
0 59 C G 0.000008
0 59 C - -0.000009
0 59 U A -0.004553
0 59 U C 0.000004
0 59 U U 0.000007
0 59 U G 0.000696
0 59 U - 0.000410
0 59 G A 0.000362
0 59 G C 0.000001
0 59 G U 0.000002
0 59 G G -0.000008
0 59 G - 0.000004
0 59 - A 0.015018
0 59 - C -0.000003
0 59 - U 0.000006
0 59 - G -0.000001
0 59 - - -0.000001
0 60 A A -0.000271
0 60 A C -0.003674
0 60 A U 0.007705
0 60 A G 0.000937
0 60 A - 0.000001
0 60 C A 0.005536
0 60 C C 0.000973
0 60 C U -0.008181
0 60 C G 0.000983
0 60 C - 0.000948
0 60 U A -0.107120
0 60 U C 0.013549
0 60 U U -0.001686
0 60 U G 0.001153
0 60 U - -0.000006
0 60 G A 0.058076
0 60 G C -0.047525
0 60 G U 0.018998
0 60 G G -0.000005
0 60 G - 0.000802
0 60 - A -0.000002
0 60 - C 0.001067
0 60 - U 0.001047
0 60 - G 0.000010
0 60 - - 0.000010
0 61 A A 0.000000
0 61 A C -0.051264
0 61 A U 0.045165
0 61 A G 0.002764
0 61 A - 0.000005
0 61 C A -0.000008
0 61 C C 0.001419
0 61 C U -0.001410
0 61 C G -0.000004
0 61 C - 0.000005
0 61 U A 0.004321
0 61 U C -0.001404
0 61 U U -0.107147
0 61 U G 0.049197
0 61 U - 0.003301
0 61 G A -0.000005
0 61 G C 0.039624
0 61 G U 0.003405
0 61 G G -0.085177
0 61 G - 0.000598
0 61 - A 0.000012
0 61 - C 0.015257
0 61 - U 0.001115
0 61 - G 0.000012
0 61 - - 0.000012
0 62 A A 0.195545
0 62 A C -0.001681
0 62 A U -0.012722
0 62 A G -0.000004
0 62 A - 0.000002
0 62 C A 0.000981
0 62 C C -0.002933
0 62 C U 0.001050
0 62 C G 0.000006
0 62 C - 0.000008
0 62 U A -0.000007
0 62 U C -0.000196
0 62 U U -0.000728
0 62 U G 0.000584
0 62 U - 0.000010
0 62 G A -0.332129
0 62 G C 0.057016
0 62 G U 0.003089
0 62 G G 0.004439
0 62 G - 0.000005
0 62 - A 0.000008
0 62 - C 0.001061
0 62 - U 0.006843
0 62 - G 0.000008
0 62 - - 0.000008
0 63 A A -0.019748
0 63 A C 0.000002
0 63 A U -0.000002
0 63 A G 0.001718
0 63 A - -0.000005
0 63 C A -0.000003
0 63 C C 0.000000
0 63 C U -0.000001
0 63 C G -0.002877
0 63 C - -0.000005
0 63 U A 0.002641
0 63 U C -0.000008
0 63 U U -0.000007
0 63 U G -0.003030
0 63 U - 0.000002
0 63 G A 0.000214
0 63 G C 0.000001
0 63 G U -0.000004
0 63 G G -0.003079
0 63 G - 0.000008
0 63 - A 0.000007
0 63 - C -0.000008
0 63 - U -0.000009
0 63 - G 0.012753
0 63 - - 0.000000
0 64 A A -0.000004
0 64 A C 0.000815
0 64 A U -0.000005
0 64 A G -0.059205
0 64 A - 0.000010
0 64 C A 0.000979
0 64 C C 0.000010
0 64 C U 0.000119
0 64 C G -0.006659
0 64 C - 0.000002
0 64 U A 0.001363
0 64 U C -0.000010
0 64 U U -0.000006
0 64 U G -0.003330
0 64 U - 0.000452
0 64 G A -0.000002
0 64 G C 0.000010
0 64 G U -0.000001
0 64 G G 0.002996
0 64 G - -0.000004
0 64 - A 0.000009
0 64 - C 0.000009
0 64 - U 0.000009
0 64 - G 0.053545
0 64 - - 0.000009
0 65 A A 0.000001
0 65 A C -0.000014
0 65 A U 0.000128
0 65 A G -0.000011
0 65 A - -0.000004
0 65 C A -0.000010
0 65 C C 0.000733
0 65 C U -0.006313
0 65 C G -0.000010
0 65 C - -0.000003
0 65 U A 0.000008
0 65 U C -0.000005
0 65 U U -0.000780
0 65 U G 0.000004
0 65 U - -0.000001
0 65 G A 0.000001
0 65 G C -0.000005
0 65 G U 0.001205
0 65 G G 0.000005
0 65 G - -0.000010
0 65 - A 0.000006
0 65 - C 0.000006
0 65 - U 0.017167
0 65 - G 0.000006
0 65 - - 0.000006
0 66 A A 0.003396
0 66 A C -0.000006
0 66 A U -0.000040
0 66 A G -0.051925