# NB_STEPS 3000
# UP_FREQ 1000
# TEMP 1.000000
# LAMBDA 0.010000
# ID_THRES 1.000000
# ALPHA 1.000000
0 0 A A 0.000915
0 0 C C -0.000294
0 0 U U -0.002928
0 0 G G 0.000728
0 0 - - 0.001073
0 1 A A -0.000208
0 1 A C 0.000418
0 1 A U 0.001562
0 1 A G 0.002749
0 1 A - 0.042710
0 1 C A 0.000215
0 1 C C 0.000343
0 1 C U -0.000609
0 1 C G 0.000006
0 1 C - 0.000004
0 1 U A 0.000011
0 1 U C -0.000012
0 1 U U -0.089777
0 1 U G 0.001015
0 1 U - -0.000002
0 1 G A -0.000001
0 1 G C 0.000002
0 1 G U 0.007814
0 1 G G -0.000003
0 1 G - 0.000009
0 1 - A 0.000013
0 1 - C 0.000533
0 1 - U 0.027675
0 1 - G -0.000003
0 1 - - -0.075841
0 2 A A 0.453728
0 2 A C -0.302795
0 2 A U -0.231863
0 2 A G 0.009366
0 2 A - 0.009431
0 2 C A -0.073590
0 2 C C 0.000372
0 2 C U 0.108111
0 2 C G -0.000883
0 2 C - 0.000004
0 2 U A -0.006355
0 2 U C 0.000902
0 2 U U 0.000245
0 2 U G -0.000008
0 2 U - -0.000004
0 2 G A 0.002387
0 2 G C 0.000001
0 2 G U -0.025289
0 2 G G 0.000006
0 2 G - 0.000938
0 2 - A -0.000008
0 2 - C 0.000004
0 2 - U 0.007016
0 2 - G 0.000002
0 2 - - -0.000009
0 3 A A -0.121647
0 3 A C 0.002970
0 3 A U 0.013603
0 3 A G 0.004930
0 3 A - 0.001675
0 3 C A 0.000010
0 3 C C 0.000011
0 3 C U -0.000002
0 3 C G 0.000072
0 3 C - 0.000004
0 3 U A -0.000009
0 3 U C 0.000012
0 3 U U -0.000001
0 3 U G -0.005214
0 3 U - 0.000007
0 3 G A 0.000012
0 3 G C 0.000002
0 3 G U 0.000010
0 3 G G 0.001250
0 3 G - 0.000145
0 3 - A 0.000011
0 3 - C -0.000005
0 3 - U -0.000003
0 3 - G 0.002986
0 3 - - 0.000001
0 4 A A 0.000002
0 4 A C 0.000003
0 4 A U -0.000006
0 4 A G 0.000419
0 4 A - 0.000002
0 4 C A 0.000002
0 4 C C 0.000004
0 4 C U -0.000005
0 4 C G -0.000277
0 4 C - 0.000002
0 4 U A -0.000009
0 4 U C 0.000003
0 4 U U 0.000002
0 4 U G -0.003343
0 4 U - 0.000006
0 4 G A 0.000002
0 4 G C 0.000002
0 4 G U 0.000002
0 4 G G 0.000788
0 4 G - -0.000007
0 4 - A 0.000010
0 4 - C 0.000002
0 4 - U 0.000002
0 4 - G 0.000977
0 4 - - 0.000002
0 5 A A 0.000008
0 5 A C 0.000001
0 5 A U -0.000005
0 5 A G -0.002860
0 5 A - -0.000002
0 5 C A 0.000004
0 5 C C 0.000007
0 5 C U -0.000001
0 5 C G -0.000327
0 5 C - -0.000004
0 5 U A -0.000005
0 5 U C -0.000002
0 5 U U -0.000003
0 5 U G -0.005017
0 5 U - -0.000009
0 5 G A -0.000006
0 5 G C -0.000008
0 5 G U -0.000005
0 5 G G 0.000271
0 5 G - 0.000007
0 5 - A 0.000007
0 5 - C 0.000007
0 5 - U 0.000007
0 5 - G 0.001150
0 5 - - 0.000007
0 6 A A 0.000003
0 6 A C 0.000003
0 6 A U 0.000006
0 6 A G -0.000371
0 6 A - 0.000001
0 6 C A 0.000470
0 6 C C 0.000002
0 6 C U 0.000002
0 6 C G -0.000789
0 6 C - 0.000008
0 6 U A -0.000002
0 6 U C -0.000009
0 6 U U 0.000000
0 6 U G -0.004111
0 6 U - -0.000005
0 6 G A 0.000009
0 6 G C 0.000002
0 6 G U 0.000002
0 6 G G 0.000674
0 6 G - 0.000002
0 6 - A 0.000002
0 6 - C 0.000002
0 6 - U 0.000169
0 6 - G 0.000112
0 6 - - 0.000002
0 7 A A -0.003315
0 7 A C 0.000237
0 7 A U 0.000004
0 7 A G 0.000010
0 7 A - -0.000001
0 7 C A -0.000339
0 7 C C 0.000002
0 7 C U 0.000002
0 7 C G -0.000009
0 7 C - -0.000003
0 7 U A -0.003007
0 7 U C -0.000004
0 7 U U 0.000002
0 7 U G 0.000002
0 7 U - 0.000002
0 7 G A 0.000205
0 7 G C 0.000010
0 7 G U 0.000007
0 7 G G 0.000002
0 7 G - -0.000008
0 7 - A 0.000501
0 7 - C 0.000002
0 7 - U 0.000002
0 7 - G -0.000010
0 7 - - 0.000002
0 8 A A 0.000006
0 8 A C 0.000051
0 8 A U -0.000002
0 8 A G -0.002656
0 8 A - 0.001322
0 8 C A -0.000008
0 8 C C 0.000010
0 8 C U -0.000006
0 8 C G -0.000643
0 8 C - 0.000006
0 8 U A -0.000006
0 8 U C 0.000405
0 8 U U -0.000005
0 8 U G -0.006612
0 8 U - -0.000007
0 8 G A 0.000006
0 8 G C 0.000006
0 8 G U 0.000006
0 8 G G 0.000788
0 8 G - 0.000006
0 8 - A 0.000002
0 8 - C 0.000006
0 8 - U 0.000006
0 8 - G 0.001135
0 8 - - -0.000009
0 9 A A -0.000003
0 9 A C -0.000006
0 9 A U 0.000408
0 9 A G 0.000003
0 9 A - 0.000002
0 9 C A 0.000001
0 9 C C -0.000008
0 9 C U -0.000269
0 9 C G -0.000002
0 9 C - -0.000002
0 9 U A -0.000001
0 9 U C -0.000005
0 9 U U -0.004180
0 9 U G -0.000003
0 9 U - -0.000002
0 9 G A -0.000002
0 9 G C -0.000002
0 9 G U 0.000758
0 9 G G -0.000002
0 9 G - 0.000008
0 9 - A -0.000002
0 9 - C 0.000008
0 9 - U 0.000841
0 9 - G -0.000002
0 9 - - -0.000002
0 10 A A -0.000428
0 10 A C 0.000591
0 10 A U 0.000095
0 10 A G -0.000008
0 10 A - -0.000007
0 10 C A -0.000365
0 10 C C 0.000005
0 10 C U 0.000007
0 10 C G -0.000004
0 10 C - -0.000004
0 10 U A -0.005469
0 10 U C 0.000665
0 10 U U 0.000002
0 10 U G -0.000004
0 10 U - 0.000008
0 10 G A 0.000191
0 10 G C -0.000004
0 10 G U 0.000005
0 10 G G 0.000010
0 10 G - -0.000004
0 10 - A 0.001088
0 10 - C -0.000004
0 10 - U 0.000000
0 10 - G -0.000004
0 10 - - -0.000004
0 11 A A -0.000005
0 11 A C -0.000000
0 11 A U 0.000005
0 11 A G -0.000192
0 11 A - -0.000006
0 11 C A 0.000005
0 11 C C 0.000002
0 11 C U 0.000006
0 11 C G -0.001060
0 11 C - 0.000000
0 11 U A -0.000016
0 11 U C 0.000000
0 11 U U 0.000694
0 11 U G -0.002449
0 11 U - 0.000005
0 11 G A 0.000004
0 11 G C 0.000000
0 11 G U -0.000006
0 11 G G 0.001341
0 11 G - -0.000006
0 11 - A -0.000003
0 11 - C 0.000005
0 11 - U -0.000006
0 11 - G 0.001037
0 11 - - 0.000006
0 12 A A 0.000012
0 12 A C -0.477503
0 12 A U 0.191809
0 12 A G 0.000834
0 12 A - -0.000000
0 12 C A 0.000258
0 12 C C 0.251710
0 12 C U -0.060970
0 12 C G -0.000003
0 12 C - 0.000009
0 12 U A 0.000000
0 12 U C -0.002961
0 12 U U 0.000666
0 12 U G 0.000008
0 12 U - 0.000007
0 12 G A 0.000952
0 12 G C 0.000000
0 12 G U 0.003107
0 12 G G 0.000004
0 12 G - 0.000013
0 12 - A -0.000003
0 12 - C 0.012083
0 12 - U -0.000015
0 12 - G -0.000003
0 12 - - 0.000743
0 13 A A 0.000119
0 13 A C -0.074904
0 13 A U 0.000240
0 13 A G -0.000001
0 13 A - 0.002455
0 13 C A 0.000006
0 13 C C -0.002535
0 13 C U 0.000002
0 13 C G -0.000006
0 13 C - 0.000125
0 13 U A 0.000155
0 13 U C -0.000222
0 13 U U -0.000394
0 13 U G -0.000008
0 13 U - -0.000008
0 13 G A -0.000004
0 13 G C 0.000780
0 13 G U 0.001841
0 13 G G -0.000008
0 13 G - -0.000008
0 13 - A 0.000348
0 13 - C 0.065629
0 13 - U -0.027755
0 13 - G -0.000003
0 13 - - 0.000007
0 14 A A -0.388523
0 14 A C 0.342222
0 14 A U 0.040300
0 14 A G -0.055431
0 14 A - 0.021741
0 14 C A 0.023244
0 14 C C 0.000007
0 14 C U -0.123335
0 14 C G 0.077053
0 14 C - 0.000393
0 14 U A 0.056604
0 14 U C -0.110182
0 14 U U 0.011968
0 14 U G 0.006192
0 14 U - 0.000818
0 14 G A 0.000772
0 14 G C 0.000008
0 14 G U 0.000982
0 14 G G 0.001453
0 14 G - 0.000007
0 14 - A 0.000851
0 14 - C 0.000005
0 14 - U 0.001629
0 14 - G 0.002276
0 14 - - 0.000010
0 15 A A 0.001157
0 15 A C 0.000114
0 15 A U -0.100699
0 15 A G 0.106601
0 15 A - 0.000924
0 15 C A 0.000556
0 15 C C -0.001279
0 15 C U 0.005595
0 15 C G -0.068368
0 15 C - -0.000700
0 15 U A 0.001544
0 15 U C -0.001478
0 15 U U -0.000545
0 15 U G 0.000505
0 15 U - 0.000881
0 15 G A -0.055030
0 15 G C 0.002137
0 15 G U 0.072900
0 15 G G 0.001986
0 15 G - -0.000008
0 15 - A 0.000018
0 15 - C 0.001289
0 15 - U 0.000821
0 15 - G -0.000011
0 15 - - 0.000004
0 16 A A 0.001771
0 16 A C -0.011806
0 16 A U 0.003884
0 16 A G 0.000447
0 16 A - 0.059044
0 16 C A 0.000799
0 16 C C 0.009339
0 16 C U 0.063437
0 16 C G -0.000038
0 16 C - -0.170091
0 16 U A 0.001353
0 16 U C -0.129016
0 16 U U -0.002599
0 16 U G 0.001458
0 16 U - 0.014683
0 16 G A 0.000418
0 16 G C 0.320167
0 16 G U -0.236773
0 16 G G 0.000750
0 16 G - -0.000000
0 16 - A 0.000036
0 16 - C 0.001370
0 16 - U 0.000761
0 16 - G -0.000011
0 16 - - 0.000006
0 17 A A 0.210087
0 17 A C -0.162109
0 17 A U -0.002452
0 17 A G 0.004141
0 17 A - 0.002439
0 17 C A -0.000010
0 17 C C 0.003240
0 17 C U 0.110698
0 17 C G 0.000480
0 17 C - -0.079696
0 17 U A -0.179549
0 17 U C -0.003139
0 17 U U 0.000394
0 17 U G 0.088854
0 17 U - 0.012629
0 17 G A 0.000129
0 17 G C 0.049444
0 17 G U -0.031809
0 17 G G 0.000661
0 17 G - 0.000000
0 17 - A -0.000000
0 17 - C 0.017004
0 17 - U 0.001192
0 17 - G -0.083294
0 17 - - 0.000011
0 18 A A 0.032371
0 18 A C 0.007648
0 18 A U -0.206222
0 18 A G 0.017178
0 18 A - 0.001084
0 18 C A -0.000002
0 18 C C 0.021733
0 18 C U 0.199199
0 18 C G -0.000348
0 18 C - -0.193382
0 18 U A 0.000419
0 18 U C -0.005843
0 18 U U 0.018539
0 18 U G -0.004517
0 18 U - 0.026743
0 18 G A 0.000005
0 18 G C 0.000639
0 18 G U 0.001730
0 18 G G -0.000010
0 18 G - 0.010259
0 18 - A 0.000003
0 18 - C -0.000314
0 18 - U 0.000912
0 18 - G 0.003393
0 18 - - -0.000008
0 19 A A -0.000598
0 19 A C 0.014574
0 19 A U 0.006377
0 19 A G 0.003733
0 19 A - -0.119751
0 19 C A -0.027255
0 19 C C 0.049532
0 19 C U 0.000003
0 19 C G 0.000240
0 19 C - -0.002762
0 19 U A -0.010066
0 19 U C -0.011233
0 19 U U 0.004204
0 19 U G 0.001763
0 19 U - 0.012897
0 19 G A 0.003375
0 19 G C -0.010635
0 19 G U 0.000009
0 19 G G -0.000003
0 19 G - 0.002806
0 19 - A 0.007698
0 19 - C 0.000696
0 19 - U 0.000004
0 19 - G 0.000008
0 19 - - 0.001604
0 20 A A -0.019080
0 20 A C 0.212473
0 20 A U 0.000103
0 20 A G 0.006174
0 20 A - 0.011276
0 20 C A 0.002768
0 20 C C 0.000002
0 20 C U -0.000007
0 20 C G 0.011638
0 20 C - -0.119768
0 20 U A 0.025805
0 20 U C -0.265217
0 20 U U -0.000025
0 20 U G 0.066542
0 20 U - 0.006992
0 20 G A -0.000005
0 20 G C -0.000006
0 20 G U 0.000365
0 20 G G 0.000336
0 20 G - 0.000776
0 20 - A 0.000852
0 20 - C 0.000451
0 20 - U 0.001720
0 20 - G -0.000945
0 20 - - -0.000008
0 21 A A -0.001790
0 21 A C -0.019194
0 21 A U 0.018764
0 21 A G -0.004847
0 21 A - 0.018198
0 21 C A 0.065447
0 21 C C 0.000092
0 21 C U 0.000008
0 21 C G 0.007637
0 21 C - -0.227651
0 21 U A 0.000418
0 21 U C 0.002814
0 21 U U -0.000000
0 21 U G -0.000183
0 21 U - 0.007472
0 21 G A -0.000117
0 21 G C 0.008778
0 21 G U 0.000001
0 21 G G 0.000189
0 21 G - 0.000802
0 21 - A 0.040529
0 21 - C 0.006248
0 21 - U -0.000002
0 21 - G 0.000175
0 21 - - 0.000575
0 22 A A -0.016760
0 22 A C 0.007071
0 22 A U 0.070731
0 22 A G -0.258637
0 22 A - 0.225138
0 22 C A 0.054893
0 22 C C 0.000063
0 22 C U 0.000957
0 22 C G 0.003904
0 22 C - -0.332421
0 22 U A 0.004158
0 22 U C 0.102070
0 22 U U -0.015727
0 22 U G -0.001654
0 22 U - 0.000002
0 22 G A 0.001423
0 22 G C 0.000686
0 22 G U 0.000211
0 22 G G 0.040203
0 22 G - -0.000006
0 22 - A 0.077221
0 22 - C -0.064800
0 22 - U -0.000007
0 22 - G 0.040143
0 22 - - 0.000387
0 23 A A -0.002257
0 23 A C 0.012093
0 23 A U 0.000538
0 23 A G -0.053047
0 23 A - 0.002110
0 23 C A 0.235240
0 23 C C -0.027903
0 23 C U 0.000727
0 23 C G 0.104282
0 23 C - -0.139857
0 23 U A -0.040899
0 23 U C 0.002131
0 23 U U 0.000001
0 23 U G -0.196420
0 23 U - 0.006595
0 23 G A -0.160969
0 23 G C 0.000665
0 23 G U 0.000001
0 23 G G 0.248070
0 23 G - 0.000008
0 23 - A 0.000736
0 23 - C -0.000000
0 23 - U 0.000004
0 23 - G -0.000046
0 23 - - 0.000003
0 24 A A -0.366344
0 24 A C 0.397733
0 24 A U 0.000789
0 24 A G -0.018311
0 24 A - 0.000541
0 24 C A 0.003557
0 24 C C -0.099150
0 24 C U 0.001567
0 24 C G 0.211855
0 24 C - -0.012445
0 24 U A 0.002026
0 24 U C 0.000062
0 24 U U -0.000002
0 24 U G -0.075605
0 24 U - 0.000873
0 24 G A 0.000779
0 24 G C 0.001928
0 24 G U -0.067622
0 24 G G 0.002057
0 24 G - -0.000004
0 24 - A -0.000003
0 24 - C 0.000720
0 24 - U 0.000007
0 24 - G 0.001610
0 24 - - 0.000004
0 25 A A -0.131015
0 25 A C 0.233529
0 25 A U -0.000056
0 25 A G -0.201932
0 25 A - 0.105494
0 25 C A 0.245447
0 25 C C -0.000001
0 25 C U 0.000005
0 25 C G -0.006232
0 25 C - -0.301161
0 25 U A -0.174916
0 25 U C -0.001000
0 25 U U 0.001524
0 25 U G -0.000490
0 25 U - 0.061416
0 25 G A 0.001349
0 25 G C -0.052726
0 25 G U -0.000004
0 25 G G 0.227626
0 25 G - 0.000795
0 25 - A 0.002234
0 25 - C 0.000009
0 25 - U 0.000004
0 25 - G -0.000184
0 25 - - -0.008225
0 26 A A -0.000751
0 26 A C -0.110107
0 26 A U 0.000820
0 26 A G 0.003193
0 26 A - 0.002206
0 26 C A 0.000954
0 26 C C 0.000001
0 26 C U -0.000000
0 26 C G -0.000201
0 26 C - -0.000007
0 26 U A -0.000363
0 26 U C 0.051388
0 26 U U -0.000009
0 26 U G 0.002720
0 26 U - 0.000911
0 26 G A 0.000007
0 26 G C -0.000007
0 26 G U 0.000004
0 26 G G -0.000114
0 26 G - -0.000002
0 26 - A -0.000004
0 26 - C 0.001165
0 26 - U -0.000001
0 26 - G 0.000015
0 26 - - 0.000007
0 27 A A -0.042796
0 27 A C 0.025793
0 27 A U -0.001621
0 27 A G -0.000477
0 27 A - 0.021144
0 27 C A 0.076857
0 27 C C -0.005661
0 27 C U 0.001643
0 27 C G 0.000001
0 27 C - 0.000004
0 27 U A -0.000951
0 27 U C -0.001708
0 27 U U 0.005471
0 27 U G -0.002608
0 27 U - 0.000002
0 27 G A 0.001648
0 27 G C 0.084331
0 27 G U -0.195419
0 27 G G 0.000008
0 27 G - 0.000007
0 27 - A 0.000002
0 27 - C -0.001145
0 27 - U 0.014756
0 27 - G -0.000006
0 27 - - 0.000002
0 28 A A 0.523645
0 28 A C -0.073417
0 28 A U -0.064168
0 28 A G -0.032621
0 28 A - 0.000864
0 28 C A -0.015835
0 28 C C 0.018147
0 28 C U 0.000661
0 28 C G 0.000232
0 28 C - -0.000002
0 28 U A -0.360864
0 28 U C -0.004124
0 28 U U 0.039333
0 28 U G -0.001572
0 28 U - 0.000051
0 28 G A -0.005482
0 28 G C 0.005430
0 28 G U 0.003327
0 28 G G 0.000003
0 28 G - -0.000006
0 28 - A 0.000866
0 28 - C -0.024693
0 28 - U 0.001177
0 28 - G 0.000001
0 28 - - -0.000006
0 29 A A -0.002407
0 29 A C 0.011523
0 29 A U 0.007275
0 29 A G 0.000611
0 29 A - 0.007281
0 29 C A -0.000010
0 29 C C 0.000631
0 29 C U -0.118028
0 29 C G 0.044837
0 29 C - 0.000000
0 29 U A 0.007929
0 29 U C -0.001667
0 29 U U 0.002681
0 29 U G -0.086279
0 29 U - 0.001390
0 29 G A 0.000007
0 29 G C -0.000369
0 29 G U 0.006014
0 29 G G 0.000009
0 29 G - 0.000004
0 29 - A -0.000007
0 29 - C 0.015730
0 29 - U 0.003251
0 29 - G 0.000009
0 29 - - -0.000002
0 30 A A -0.020682
0 30 A C -0.000865
0 30 A U 0.002340
0 30 A G -0.002656
0 30 A - 0.000005
0 30 C A -0.000818
0 30 C C 0.001203
0 30 C U -0.000015
0 30 C G 0.000279
0 30 C - -0.000005
0 30 U A -0.008850
0 30 U C -0.000134
0 30 U U -0.000030
0 30 U G 0.003899
0 30 U - 0.001010
0 30 G A 0.000620
0 30 G C -0.000005
0 30 G U 0.000010
0 30 G G 0.001896
0 30 G - 0.000004
0 30 - A 0.001975
0 30 - C 0.000006
0 30 - U 0.000197
0 30 - G -0.000060
0 30 - - -0.000004
0 31 A A 0.002006
0 31 A C 0.006288
0 31 A U -0.003181
0 31 A G -0.001402
0 31 A - 0.000003
0 31 C A 0.000010
0 31 C C -0.010571
0 31 C U 0.006393
0 31 C G -0.000008
0 31 C - 0.000003
0 31 U A 0.000335
0 31 U C -0.003926
0 31 U U 0.000306
0 31 U G -0.000006
0 31 U - 0.000006
0 31 G A -0.000009
0 31 G C 0.097076
0 31 G U -0.105683
0 31 G G 0.000008
0 31 G - 0.000007
0 31 - A -0.000011
0 31 - C 0.000485
0 31 - U 0.000003
0 31 - G 0.000007
0 31 - - -0.000002
0 32 A A -0.004439
0 32 A C 0.005517
0 32 A U 0.000826
0 32 A G -0.015119
0 32 A - 0.000850
0 32 C A -0.001337
0 32 C C -0.000004
0 32 C U 0.000005
0 32 C G 0.002419
0 32 C - 0.000009
0 32 U A -0.004713
0 32 U C 0.000008
0 32 U U -0.000006
0 32 U G -0.002253
0 32 U - 0.000990
0 32 G A 0.001111
0 32 G C -0.000004
0 32 G U 0.000010
0 32 G G -0.001549
0 32 G - 0.000942
0 32 - A -0.000011
0 32 - C -0.000004
0 32 - U 0.000010
0 32 - G 0.001144
0 32 - - -0.000001
0 33 A A -0.000006
0 33 A C -0.022237
0 33 A U 0.009340
0 33 A G 0.000004
0 33 A - 0.000000
0 33 C A 0.000005
0 33 C C -0.000001
0 33 C U -0.000789
0 33 C G -0.000006
0 33 C - 0.000007
0 33 U A 0.000009
0 33 U C -0.000004
0 33 U U -0.009963
0 33 U G 0.000008
0 33 U - 0.000000
0 33 G A 0.000009
0 33 G C 0.000005
0 33 G U 0.000423
0 33 G G 0.000008
0 33 G - 0.000009
0 33 - A 0.000010
0 33 - C -0.000001
0 33 - U 0.001284
0 33 - G 0.000010
0 33 - - 0.000000
0 34 A A -0.000000
0 34 A C -0.000240
0 34 A U -0.000006
0 34 A G -0.000007
0 34 A - 0.000843
0 34 C A 0.000005
0 34 C C -0.000316
0 34 C U 0.000002
0 34 C G 0.000002
0 34 C - 0.000005
0 34 U A -0.000006
0 34 U C -0.003811
0 34 U U 0.000000
0 34 U G 0.000005
0 34 U - -0.000005
0 34 G A -0.000007
0 34 G C -0.000150
0 34 G U 0.000005
0 34 G G 0.000005
0 34 G - 0.000005
0 34 - A -0.000007
0 34 - C 0.001087
0 34 - U 0.000005
0 34 - G 0.000005
0 34 - - 0.000005
0 35 A A -0.002092
0 35 A C 0.000728
0 35 A U 0.000000
0 35 A G -0.000008
0 35 A - 0.000005
0 35 C A -0.000278
0 35 C C -0.000006
0 35 C U 0.000007
0 35 C G 0.000002
0 35 C - -0.000002
0 35 U A -0.004499
0 35 U C 0.000005
0 35 U U -0.000002
0 35 U G -0.000007
0 35 U - 0.000007
0 35 G A 0.000852
0 35 G C 0.000007
0 35 G U 0.000007
0 35 G G 0.000007
0 35 G - 0.000007
0 35 - A 0.001113
0 35 - C 0.000007
0 35 - U 0.000007
0 35 - G 0.000007
0 35 - - 0.000007
0 36 A A -0.000990
0 36 A C -0.000007
0 36 A U 0.000004
0 36 A G 0.000009
0 36 A - 0.000007
0 36 C A -0.000221
0 36 C C -0.000001
0 36 C U -0.000001
0 36 C G 0.000002
0 36 C - -0.000001
0 36 U A -0.004443
0 36 U C -0.000001
0 36 U U 0.000005
0 36 U G 0.000009
0 36 U - -0.000001
0 36 G A 0.000596
0 36 G C -0.000001
0 36 G U -0.000001
0 36 G G 0.000010
0 36 G - -0.000001
0 36 - A 0.000452
0 36 - C 0.000006
0 36 - U -0.000001
0 36 - G -0.000001
0 36 - - -0.000001
0 37 A A 0.000007
0 37 A C -0.002699
0 37 A U 0.000000
0 37 A G 0.000000
0 37 A - -0.000002
0 37 C A 0.000010
0 37 C C -0.000291
0 37 C U 0.000001
0 37 C G 0.000006
0 37 C - -0.000001
0 37 U A 0.000008
0 37 U C -0.003800
0 37 U U -0.000001
0 37 U G -0.000009
0 37 U - -0.000001
0 37 G A 0.000007
0 37 G C 0.000857
0 37 G U 0.000010
0 37 G G -0.000001
0 37 G - 0.000004
0 37 - A 0.000009
0 37 - C 0.001069
0 37 - U -0.000001
0 37 - G -0.000003
0 37 - - -0.000001
0 38 A A -0.000921
0 38 A C 0.000006
0 38 A U 0.000010
0 38 A G -0.000008
0 38 A - 0.000054
0 38 C A -0.000272
0 38 C C -0.000007
0 38 C U -0.000007
0 38 C G -0.000004
0 38 C - -0.000001
0 38 U A -0.003319
0 38 U C 0.000000
0 38 U U 0.000001
0 38 U G 0.000002
0 38 U - 0.000004
0 38 G A 0.000770
0 38 G C -0.000007
0 38 G U -0.000007
0 38 G G -0.000007
0 38 G - -0.000007
0 38 - A 0.001082
0 38 - C -0.000002
0 38 - U 0.000003
0 38 - G -0.000007
0 38 - - -0.000007
0 39 A A 0.000776
0 39 A C 0.603080
0 39 A U 0.014993
0 39 A G -0.440433
0 39 A - 0.000705
0 39 C A 0.000005
0 39 C C -0.008921
0 39 C U 0.009479
0 39 C G 0.003392
0 39 C - 0.000287
0 39 U A -0.000011
0 39 U C 0.020303
0 39 U U -0.158035
0 39 U G 0.034872
0 39 U - -0.000000
0 39 G A -0.000004
0 39 G C 0.000828
0 39 G U 0.000303
0 39 G G 0.000845
0 39 G - 0.000011
0 39 - A 0.000029
0 39 - C -0.164607
0 39 - U 0.009211
0 39 - G 0.000341
0 39 - - -0.000003
0 40 A A -0.460605
0 40 A C 0.044345
0 40 A U 0.197089
0 40 A G 0.003226
0 40 A - 0.005174
0 40 C A 0.001920
0 40 C C 0.025883
0 40 C U 0.000001
0 40 C G -0.000069
0 40 C - 0.000728
0 40 U A 0.047839
0 40 U C -0.101228
0 40 U U -0.001542
0 40 U G 0.116959
0 40 U - 0.001395
0 40 G A 0.001274
0 40 G C 0.000002
0 40 G U 0.000852
0 40 G G 0.000732
0 40 G - -0.000003
0 40 - A 0.014233
0 40 - C 0.000122
0 40 - U 0.000005
0 40 - G -0.000006
0 40 - - 0.000007
0 41 A A 0.032141
0 41 A C -0.054095
0 41 A U -0.000457
0 41 A G 0.000592
0 41 A - 0.000006
0 41 C A 0.001413
0 41 C C -0.002985
0 41 C U 0.000931
0 41 C G 0.000554
0 41 C - 0.000008
0 41 U A -0.050483
0 41 U C 0.001513
0 41 U U 0.000002
0 41 U G -0.000005
0 41 U - 0.001614
0 41 G A -0.000009
0 41 G C 0.001282
0 41 G U 0.000933
0 41 G G -0.000002
0 41 G - -0.000001
0 41 - A -0.000002
0 41 - C 0.022113
0 41 - U 0.000005
0 41 - G -0.000006
0 41 - - -0.000006
0 42 A A 0.000004
0 42 A C 0.000686
0 42 A U -0.003116
0 42 A G 0.001619
0 42 A - 0.000010
0 42 C A 0.000002
0 42 C C 0.000001
0 42 C U -0.000603
0 42 C G 0.000001
0 42 C - -0.000006
0 42 U A -0.000009
0 42 U C 0.000001
0 42 U U -0.003020
0 42 U G 0.000000
0 42 U - -0.000007
0 42 G A 0.000010
0 42 G C -0.000003
0 42 G U 0.000750
0 42 G G -0.000005
0 42 G - 0.000007
0 42 - A -0.000009
0 42 - C 0.000006
0 42 - U 0.000535
0 42 - G -0.000007
0 42 - - -0.000010
0 43 A A -0.000001
0 43 A C 0.065251
0 43 A U -0.016522
0 43 A G -0.000539
0 43 A - -0.000007
0 43 C A 0.000009
0 43 C C 0.001673
0 43 C U -0.004767
0 43 C G -0.000001
0 43 C - 0.000450
0 43 U A -0.000003
0 43 U C -0.007098
0 43 U U -0.001280
0 43 U G -0.000006
0 43 U - -0.000006
0 43 G A 0.000001
0 43 G C -0.057020
0 43 G U 0.029512
0 43 G G 0.000006
0 43 G - 0.000004
0 43 - A -0.000005
0 43 - C 0.002699
0 43 - U -0.000669
0 43 - G 0.000004
0 43 - - 0.000006
0 44 A A -0.000002
0 44 A C 0.001059
0 44 A U 0.000811
0 44 A G -0.006047
0 44 A - 0.003647
0 44 C A -0.000006
0 44 C C -0.000004
0 44 C U -0.000004
0 44 C G 0.000015
0 44 C - -0.000008
0 44 U A -0.000006
0 44 U C 0.000008
0 44 U U 0.000009
0 44 U G -0.002951
0 44 U - 0.000008
0 44 G A -0.000005
0 44 G C -0.000006
0 44 G U -0.000004
0 44 G G -0.000077
0 44 G - -0.000009
0 44 - A 0.000006
0 44 - C -0.000004
0 44 - U 0.000005
0 44 - G 0.001085
0 44 - - -0.000003
0 45 A A 0.014983
0 45 A C -0.001787
0 45 A U -0.080141
0 45 A G 0.007313
0 45 A - 0.019064
0 45 C A -0.000077
0 45 C C 0.002391
0 45 C U 0.006814
0 45 C G -0.016154
0 45 C - -0.000000
0 45 U A 0.000535
0 45 U C 0.000938
0 45 U U 0.006193
0 45 U G -0.022393
0 45 U - -0.000005
0 45 G A 0.000903
0 45 G C 0.000603
0 45 G U 0.000595
0 45 G G 0.000623
0 45 G - -0.000004
0 45 - A -0.000214
0 45 - C -0.000001
0 45 - U 0.004990
0 45 - G 0.028501
0 45 - - 0.000006
0 46 A A 0.000149
0 46 A C 0.016265
0 46 A U -0.001799
0 46 A G 0.001486
0 46 A - -0.000820
0 46 C A 0.000863
0 46 C C -0.000662
0 46 C U -0.089469
0 46 C G 0.143715
0 46 C - -0.000001
0 46 U A -0.000013
0 46 U C -0.005844
0 46 U U 0.121225
0 46 U G -0.253416
0 46 U - 0.002216
0 46 G A 0.000743
0 46 G C 0.002425
0 46 G U -0.000799
0 46 G G 0.000784
0 46 G - 0.000008
0 46 - A 0.000006
0 46 - C 0.000462
0 46 - U 0.002335
0 46 - G 0.001205
0 46 - - 0.000009
0 47 A A 0.141900
0 47 A C 0.000380
0 47 A U -0.052327
0 47 A G -0.092762
0 47 A - 0.051383
0 47 C A 0.000057
0 47 C C -0.075140
0 47 C U 0.011425
0 47 C G 0.000911
0 47 C - 0.000909
0 47 U A -0.000609
0 47 U C 0.204517
0 47 U U -0.130727
0 47 U G -0.000064
0 47 U - 0.003869
0 47 G A 0.000911
0 47 G C 0.010837
0 47 G U 0.061251
0 47 G G -0.000000
0 47 G - -0.187114
0 47 - A 0.000002
0 47 - C -0.000453
0 47 - U 0.006938
0 47 - G 0.001053
0 47 - - 0.000011
0 48 A A 0.068198
0 48 A C 0.084554
0 48 A U -0.002751
0 48 A G -0.126289
0 48 A - -0.003315
0 48 C A -0.000610
0 48 C C 0.001294
0 48 C U 0.001192
0 48 C G 0.114156
0 48 C - 0.001872
0 48 U A 0.000615
0 48 U C -0.447096
0 48 U U 0.000493
0 48 U G 0.190873
0 48 U - 0.003118
0 48 G A 0.000283
0 48 G C 0.008009
0 48 G U 0.052956
0 48 G G -0.090528
0 48 G - 0.040057
0 48 - A -0.000002
0 48 - C 0.001352
0 48 - U -0.000012
0 48 - G 0.006848
0 48 - - 0.009153
0 49 A A -0.144745
0 49 A C 0.023424
0 49 A U 0.120673
0 49 A G 0.010646
0 49 A - -0.021293
0 49 C A 0.048539
0 49 C C 0.002892
0 49 C U -0.005606
0 49 C G -0.000773
0 49 C - 0.000560
0 49 U A 0.016303
0 49 U C -0.003548
0 49 U U 0.009163
0 49 U G 0.011542
0 49 U - -0.068194
0 49 G A 0.002224
0 49 G C -0.000074
0 49 G U 0.001102
0 49 G G -0.000029
0 49 G - 0.027580
0 49 - A 0.003239
0 49 - C 0.000006
0 49 - U -0.099443
0 49 - G 0.000919
0 49 - - 0.010462
0 50 A A 0.053438
0 50 A C 0.002967
0 50 A U -0.000741
0 50 A G -0.046378
0 50 A - -0.004672
0 50 C A -0.000007
0 50 C C -0.016733
0 50 C U -0.000316
0 50 C G 0.001342
0 50 C - 0.001048
0 50 U A -0.006294
0 50 U C -0.000570
0 50 U U 0.360727
0 50 U G -0.000739
0 50 U - -0.202329
0 50 G A -0.146059
0 50 G C -0.000077
0 50 G U 0.000740
0 50 G G -0.000002
0 50 G - 0.002681
0 50 - A 0.000004
0 50 - C -0.000285
0 50 - U -0.000242
0 50 - G 0.001283
0 50 - - 0.006307
0 51 A A -0.124967
0 51 A C 0.017042
0 51 A U -0.000353
0 51 A G 0.015660
0 51 A - -0.000476
0 51 C A 0.000908
0 51 C C 0.006414
0 51 C U 0.001523
0 51 C G -0.000092
0 51 C - 0.000038
0 51 U A 0.095075
0 51 U C -0.000971
0 51 U U -0.012695
0 51 U G 0.009184
0 51 U - -0.092519
0 51 G A -0.004564
0 51 G C 0.001259
0 51 G U -0.000006
0 51 G G 0.000553
0 51 G - 0.027149
0 51 - A 0.001064
0 51 - C -0.000012
0 51 - U 0.000354
0 51 - G -0.000002
0 51 - - 0.002118
0 52 A A -0.056767
0 52 A C 0.000020
0 52 A U 0.270838
0 52 A G -0.192583
0 52 A - 0.141302
0 52 C A 0.001540
0 52 C C -0.003943
0 52 C U 0.004495
0 52 C G -0.002031
0 52 C - 0.001204
0 52 U A -0.062505
0 52 U C 0.082715
0 52 U U -0.235211
0 52 U G 0.153323
0 52 U - 0.000578
0 52 G A 0.011863
0 52 G C 0.000142
0 52 G U 0.001354
0 52 G G 0.005031
0 52 G - -0.169980
0 52 - A 0.002272
0 52 - C 0.000004
0 52 - U 0.000631
0 52 - G 0.000220
0 52 - - 0.000002
0 53 A A 0.001879
0 53 A C -0.004417
0 53 A U 0.004701
0 53 A G 0.013393
0 53 A - -0.002997
0 53 C A -0.072813
0 53 C C 0.029080
0 53 C U 0.002194
0 53 C G -0.000054
0 53 C - -0.000006
0 53 U A 0.012873
0 53 U C -0.039996
0 53 U U -0.000016
0 53 U G -0.003521
0 53 U - 0.002207
0 53 G A -0.000658
0 53 G C 0.001701
0 53 G U -0.000000
0 53 G G 0.001813
0 53 G - -0.000003
0 53 - A 0.003015
0 53 - C 0.001219
0 53 - U 0.000006
0 53 - G -0.000636
0 53 - - 0.000410
0 54 A A -0.019150
0 54 A C 0.349727
0 54 A U -0.011400
0 54 A G -0.008155
0 54 A - 0.021486
0 54 C A 0.027426
0 54 C C -0.046817
0 54 C U -0.000123
0 54 C G 0.000209
0 54 C - 0.000005
0 54 U A 0.006069
0 54 U C -0.349795
0 54 U U -0.000372
0 54 U G 0.001501
0 54 U - -0.000001
0 54 G A -0.000921
0 54 G C 0.001571
0 54 G U 0.001032
0 54 G G 0.000595
0 54 G - 0.000004
0 54 - A 0.004659
0 54 - C 0.000460
0 54 - U 0.000997
0 54 - G -0.000015
0 54 - - 0.000007
0 55 A A -0.000002
0 55 A C -0.005278
0 55 A U 0.003251
0 55 A G -0.000009
0 55 A - 0.001083
0 55 C A 0.000005
0 55 C C -0.001116
0 55 C U 0.000418
0 55 C G 0.000958
0 55 C - 0.000000
0 55 U A 0.000009
0 55 U C -0.000602
0 55 U U -0.001705
0 55 U G -0.000009
0 55 U - 0.000003
0 55 G A -0.000009
0 55 G C 0.000544
0 55 G U 0.000001
0 55 G G 0.000009
0 55 G - -0.000000
0 55 - A 0.000004
0 55 - C 0.000714
0 55 - U 0.000005
0 55 - G 0.000004
0 55 - - -0.000000
0 56 A A -0.124148
0 56 A C -0.000248
0 56 A U 0.000189
0 56 A G 0.265353
0 56 A - 0.000439
0 56 C A -0.021031
0 56 C C -0.000003
0 56 C U 0.000006
0 56 C G 0.001803
0 56 C - 0.000006
0 56 U A -0.000443
0 56 U C -0.000010
0 56 U U -0.000009
0 56 U G -0.036349
0 56 U - 0.000002
0 56 G A 0.057604
0 56 G C 0.000003
0 56 G U 0.000005
0 56 G G -0.112229
0 56 G - 0.000004
0 56 - A -0.000106
0 56 - C -0.000002
0 56 - U 0.000004
0 56 - G -0.012247
0 56 - - 0.000005
0 57 A A 0.000715
0 57 A C 0.000002
0 57 A U -0.002221
0 57 A G -0.000002
0 57 A - 0.000001
0 57 C A -0.000008
0 57 C C -0.000003
0 57 C U -0.000325
0 57 C G 0.000001
0 57 C - 0.000009
0 57 U A -0.000005
0 57 U C -0.000006
0 57 U U -0.004906
0 57 U G 0.000000
0 57 U - 0.000683
0 57 G A -0.000001
0 57 G C -0.000001
0 57 G U 0.000823
0 57 G G -0.000001
0 57 G - -0.000001
0 57 - A -0.000001
0 57 - C -0.000001
0 57 - U 0.001109
0 57 - G -0.000001
0 57 - - -0.000001
0 58 A A -0.000004
0 58 A C 0.000003
0 58 A U 0.000726
0 58 A G -0.001446
0 58 A - -0.000004
0 58 C A 0.000009
0 58 C C 0.000002
0 58 C U 0.000002
0 58 C G -0.000275
0 58 C - -0.000007
0 58 U A 0.000327
0 58 U C -0.000010
0 58 U U -0.000008
0 58 U G -0.004245
0 58 U - -0.000004
0 58 G A -0.000010
0 58 G C 0.000002
0 58 G U 0.000002
0 58 G G 0.000770
0 58 G - 0.000002
0 58 - A 0.000002
0 58 - C 0.000002
0 58 - U 0.000002
0 58 - G 0.001092
0 58 - - -0.000010
0 59 A A 0.000009
0 59 A C 0.000006
0 59 A U 0.000009
0 59 A G -0.000487
0 59 A - 0.000742
0 59 C A -0.000005
0 59 C C -0.000009
0 59 C U 0.000006
0 59 C G -0.000297
0 59 C - 0.000009
0 59 U A 0.000002
0 59 U C -0.000004
0 59 U U -0.000001
0 59 U G -0.003417
0 59 U - -0.000006
0 59 G A -0.000005
0 59 G C 0.000006
0 59 G U -0.000006
0 59 G G 0.000606
0 59 G - -0.000006
0 59 - A -0.000009
0 59 - C -0.000008
0 59 - U -0.000004
0 59 - G 0.001080
0 59 - - -0.000008
0 60 A A 0.000930
0 60 A C 0.047309
0 60 A U -0.125311
0 60 A G 0.001716
0 60 A - 0.002377
0 60 C A -0.000003
0 60 C C 0.000511
0 60 C U 0.000635
0 60 C G 0.000007
0 60 C - 0.000002
0 60 U A 0.000003
0 60 U C 0.007917
0 60 U U -0.014073
0 60 U G 0.000001
0 60 U - 0.000005
0 60 G A 0.000005
0 60 G C -0.002464
0 60 G U 0.011112
0 60 G G 0.000001
0 60 G - 0.000005
0 60 - A 0.000005
0 60 - C -0.000339
0 60 - U 0.003795
0 60 - G 0.000008
0 60 - - 0.000005
0 61 A A 0.137706
0 61 A C 0.001144
0 61 A U 0.000002
0 61 A G -0.101198
0 61 A - 0.002759
0 61 C A -0.000051
0 61 C C 0.000001
0 61 C U 0.000006
0 61 C G 0.000053
0 61 C - -0.000008
0 61 U A -0.007959
0 61 U C -0.000006
0 61 U U -0.000002
0 61 U G 0.005631
0 61 U - 0.000008
0 61 G A -0.170116
0 61 G C 0.000449
0 61 G U -0.000007
0 61 G G 0.086690
0 61 G - -0.000002
0 61 - A -0.000009
0 61 - C -0.000007
0 61 - U 0.000001
0 61 - G 0.001979
0 61 - - 0.000001
0 62 A A 0.096735
0 62 A C -0.001783
0 62 A U 0.000356
0 62 A G -0.023187
0 62 A - 0.001287
0 62 C A -0.000006
0 62 C C -0.000536
0 62 C U -0.000030
0 62 C G 0.001243
0 62 C - 0.000608
0 62 U A 0.001117
0 62 U C 0.090562
0 62 U U -0.202704
0 62 U G 0.002527
0 62 U - -0.000008
0 62 G A -0.000001
0 62 G C 0.001287
0 62 G U 0.000885
0 62 G G 0.000002
0 62 G - -0.000005
0 62 - A -0.000010
0 62 - C 0.000207
0 62 - U 0.004081
0 62 - G -0.000002
0 62 - - 0.000315
0 63 A A -0.000268
0 63 A C -0.000273
0 63 A U -0.001772
0 63 A G 0.005613
0 63 A - 0.007162
0 63 C A -0.022086
0 63 C C 0.073086
0 63 C U -0.000000
0 63 C G -0.000167
0 63 C - 0.000002
0 63 U A -0.002152
0 63 U C -0.000271
0 63 U U 0.007930
0 63 U G -0.008287
0 63 U - 0.000017
0 63 G A -0.000008
0 63 G C 0.000890
0 63 G U 0.000794
0 63 G G -0.104327
0 63 G - -0.000005
0 63 - A -0.000031
0 63 - C 0.000005
0 63 - U -0.000003
0 63 - G 0.011558
0 63 - - 0.001360
0 64 A A -0.000406
0 64 A C 0.000458
0 64 A U 0.080334
0 64 A G -0.038707
0 64 A - 0.012177
0 64 C A 0.000757
0 64 C C -0.000195
0 64 C U -0.009517
0 64 C G 0.012723
0 64 C - -0.000009
0 64 U A 0.127159
0 64 U C -0.001730
0 64 U U -0.215336
0 64 U G -0.001193
0 64 U - -0.000007
0 64 G A 0.003118
0 64 G C 0.000203
0 64 G U -0.002232
0 64 G G 0.009429
0 64 G - -0.000009
0 64 - A 0.000357
0 64 - C 0.006652
0 64 - U 0.000060
0 64 - G -0.002895
0 64 - - -0.000005
0 65 A A -0.005784
0 65 A C -0.091030
0 65 A U -0.002417
0 65 A G 0.184627
0 65 A - 0.001474
0 65 C A 0.000758
0 65 C C 0.000396
0 65 C U 0.161573
0 65 C G -0.118047
0 65 C - -0.000001
0 65 U A 0.110638
0 65 U C 0.000810
0 65 U U -0.034403
0 65 U G -0.008203
0 65 U - 0.000005
0 65 G A -0.188755
0 65 G C 0.000003
0 65 G U 0.000591
0 65 G G 0.011813
0 65 G - -0.000007
0 65 - A 0.008206
0 65 - C -0.000002
0 65 - U -0.000004
0 65 - G -0.006001
0 65 - - -0.000000
0 66 A A 0.019050
0 66 A C 0.017664
0 66 A U -0.005673
0 66 A G -0.011228
0 66 A - 0.005616