# NB_STEPS 3000
# UP_FREQ 1000
# TEMP 1.000000
# LAMBDA 0.010000
# ID_THRES 1.000000
# ALPHA 1.000000
0 0 A A 0.002939
0 0 C C -0.001348
0 0 U U -0.000986
0 0 G G 0.000283
0 0 - - 0.002274
0 1 A A 0.000007
0 1 A C 0.000151
0 1 A U 0.000002
0 1 A G -0.000006
0 1 A - 0.000002
0 1 C A 0.000005
0 1 C C 0.000004
0 1 C U -0.000002
0 1 C G -0.000010
0 1 C - 0.000002
0 1 U A 0.045735
0 1 U C -0.060057
0 1 U U -0.041593
0 1 U G -0.007320
0 1 U - 0.030378
0 1 G A -0.000011
0 1 G C -0.000013
0 1 G U 0.000919
0 1 G G 0.000002
0 1 G - 0.000002
0 1 - A 0.000003
0 1 - C 0.000008
0 1 - U 0.003786
0 1 - G 0.000009
0 1 - - 0.000006
0 2 A A 0.000002
0 2 A C 0.000005
0 2 A U 0.000001
0 2 A G 0.000664
0 2 A - 0.000007
0 2 C A 0.000005
0 2 C C 0.000007
0 2 C U 0.000007
0 2 C G -0.012251
0 2 C - -0.000006
0 2 U A -0.071277
0 2 U C 0.038482
0 2 U U -0.000018
0 2 U G -0.003924
0 2 U - 0.011094
0 2 G A -0.000004
0 2 G C -0.000009
0 2 G U 0.000007
0 2 G G 0.000894
0 2 G - 0.000007
0 2 - A -0.000006
0 2 - C 0.000007
0 2 - U 0.000007
0 2 - G 0.007837
0 2 - - 0.000324
0 3 A A -0.000004
0 3 A C 0.000014
0 3 A U 0.012292
0 3 A G -0.000004
0 3 A - 0.000008
0 3 C A 0.000009
0 3 C C -0.000014
0 3 C U -0.000003
0 3 C G -0.000004
0 3 C - -0.000004
0 3 U A -0.000595
0 3 U C -0.000273
0 3 U U -0.250266
0 3 U G 0.049826
0 3 U - 0.050019
0 3 G A 0.000010
0 3 G C 0.000008
0 3 G U 0.000916
0 3 G G -0.000004
0 3 G - -0.000004
0 3 - A -0.000004
0 3 - C 0.000327
0 3 - U 0.041486
0 3 - G -0.000004
0 3 - - 0.000000
0 4 A A 0.000009
0 4 A C 0.000009
0 4 A U 0.000004
0 4 A G 0.006516
0 4 A - 0.000009
0 4 C A -0.000007
0 4 C C 0.000009
0 4 C U 0.000009
0 4 C G -0.001707
0 4 C - 0.000006
0 4 U A -0.000321
0 4 U C 0.004175
0 4 U U 0.001098
0 4 U G -0.050819
0 4 U - 0.000615
0 4 G A -0.000004
0 4 G C 0.000006
0 4 G U 0.000009
0 4 G G 0.000481
0 4 G - 0.000008
0 4 - A -0.000001
0 4 - C 0.000009
0 4 - U 0.000009
0 4 - G 0.017057
0 4 - - -0.000008
0 5 A A 0.000000
0 5 A C 0.001939
0 5 A U -0.000007
0 5 A G -0.000000
0 5 A - 0.000000
0 5 C A 0.000009
0 5 C C -0.000226
0 5 C U 0.000005
0 5 C G 0.000007
0 5 C - 0.000005
0 5 U A -0.000409
0 5 U C -0.012014
0 5 U U -0.003256
0 5 U G 0.001250
0 5 U - 0.003707
0 5 G A 0.000000
0 5 G C 0.000368
0 5 G U 0.000001
0 5 G G -0.000010
0 5 G - 0.000000
0 5 - A 0.000007
0 5 - C 0.003078
0 5 - U 0.000558
0 5 - G 0.000000
0 5 - - 0.000003
0 6 A A 0.000000
0 6 A C -0.000005
0 6 A U 0.001119
0 6 A G 0.000000
0 6 A - 0.000010
0 6 C A 0.000032
0 6 C C -0.000003
0 6 C U -0.000007
0 6 C G -0.000008
0 6 C - 0.000000
0 6 U A -0.000732
0 6 U C -0.001619
0 6 U U -0.031211
0 6 U G -0.001835
0 6 U - 0.023628
0 6 G A -0.000007
0 6 G C 0.000885
0 6 G U -0.000004
0 6 G G -0.000003
0 6 G - -0.000008
0 6 - A 0.000007
0 6 - C 0.000569
0 6 - U 0.000519
0 6 - G -0.000006
0 6 - - -0.000003
0 7 A A 0.000160
0 7 A C 0.000010
0 7 A U -0.000002
0 7 A G 0.000005
0 7 A - -0.000006
0 7 C A -0.000014
0 7 C C -0.000016
0 7 C U -0.000008
0 7 C G 0.000459
0 7 C - -0.000006
0 7 U A -0.006823
0 7 U C -0.001919
0 7 U U 0.001561
0 7 U G -0.062259
0 7 U - 0.037953
0 7 G A 0.000885
0 7 G C -0.000007
0 7 G U 0.000000
0 7 G G 0.000005
0 7 G - -0.000006
0 7 - A 0.002191
0 7 - C 0.000004
0 7 - U 0.000009
0 7 - G -0.000001
0 7 - - -0.000002
0 8 A A 0.000335
0 8 A C -0.000002
0 8 A U 0.000004
0 8 A G 0.003431
0 8 A - -0.000002
0 8 C A 0.000579
0 8 C C -0.000002
0 8 C U 0.000005
0 8 C G -0.001432
0 8 C - 0.000011
0 8 U A -0.127781
0 8 U C 0.002312
0 8 U U 0.001693
0 8 U G -0.000905
0 8 U - 0.035201
0 8 G A -0.000002
0 8 G C 0.000009
0 8 G U 0.000001
0 8 G G 0.000896
0 8 G - 0.000004
0 8 - A 0.002260
0 8 - C 0.000004
0 8 - U -0.000002
0 8 - G 0.014847
0 8 - - 0.000001
0 9 A A 0.000006
0 9 A C 0.000004
0 9 A U 0.000010
0 9 A G 0.000375
0 9 A - -0.000004
0 9 C A 0.000006
0 9 C C 0.000009
0 9 C U -0.000001
0 9 C G -0.001349
0 9 C - 0.000413
0 9 U A 0.002711
0 9 U C 0.000475
0 9 U U -0.005923
0 9 U G -0.047553
0 9 U - 0.028998
0 9 G A 0.000888
0 9 G C -0.000009
0 9 G U 0.000010
0 9 G G 0.005783
0 9 G - 0.000004
0 9 - A 0.000569
0 9 - C 0.000010
0 9 - U 0.000569
0 9 - G -0.000006
0 9 - - -0.000001
0 10 A A 0.000008
0 10 A C -0.000005
0 10 A U -0.000008
0 10 A G 0.000187
0 10 A - 0.000007
0 10 C A -0.000006
0 10 C C 0.000110
0 10 C U -0.000005
0 10 C G -0.000003
0 10 C - -0.000008
0 10 U A -0.000521
0 10 U C -0.000584
0 10 U U -0.065146
0 10 U G 0.001523
0 10 U - 0.025514
0 10 G A 0.000002
0 10 G C -0.000018
0 10 G U 0.000963
0 10 G G -0.000002
0 10 G - 0.000007
0 10 - A 0.000619
0 10 - C -0.000002
0 10 - U 0.000006
0 10 - G 0.000003
0 10 - - -0.000010
0 11 A A 0.000014
0 11 A C 0.000014
0 11 A U 0.000002
0 11 A G 0.000566
0 11 A - 0.000541
0 11 C A 0.000009
0 11 C C 0.000000
0 11 C U 0.000003
0 11 C G 0.014655
0 11 C - -0.000037
0 11 U A 0.001178
0 11 U C 0.029363
0 11 U U 0.009994
0 11 U G -0.346426
0 11 U - 0.167594
0 11 G A 0.000010
0 11 G C 0.000000
0 11 G U 0.000010
0 11 G G 0.006888
0 11 G - -0.000077
0 11 - A 0.000000
0 11 - C 0.000000
0 11 - U 0.002086
0 11 - G 0.002617
0 11 - - 0.000004
0 12 A A 0.000729
0 12 A C -0.000006
0 12 A U -0.000004
0 12 A G 0.000011
0 12 A - 0.000238
0 12 C A -0.000010
0 12 C C 0.000518
0 12 C U -0.000004
0 12 C G -0.000004
0 12 C - -0.001985
0 12 U A -0.043880
0 12 U C -0.104310
0 12 U U 0.001186
0 12 U G -0.000006
0 12 U - 0.098020
0 12 G A 0.001159
0 12 G C -0.000008
0 12 G U -0.000004
0 12 G G -0.000004
0 12 G - -0.003100
0 12 - A 0.004179
0 12 - C 0.000014
0 12 - U -0.000004
0 12 - G -0.000004
0 12 - - -0.000003
0 13 A A 0.001326
0 13 A C 0.000009
0 13 A U 0.000008
0 13 A G 0.000009
0 13 A - 0.008948
0 13 C A -0.000001
0 13 C C 0.000009
0 13 C U 0.000009
0 13 C G 0.000009
0 13 C - -0.000049
0 13 U A -0.087666
0 13 U C 0.000549
0 13 U U 0.000011
0 13 U G 0.000755
0 13 U - -0.004984
0 13 G A 0.001297
0 13 G C 0.000009
0 13 G U 0.000009
0 13 G G 0.000009
0 13 G - -0.000419
0 13 - A 0.004793
0 13 - C 0.000009
0 13 - U 0.000009
0 13 - G 0.000009
0 13 - - -0.000007
0 14 A A 0.000007
0 14 A C 0.000075
0 14 A U 0.000005
0 14 A G -0.000007
0 14 A - -0.000003
0 14 C A -0.000007
0 14 C C -0.000002
0 14 C U -0.000006
0 14 C G -0.000000
0 14 C - -0.000014
0 14 U A -0.016453
0 14 U C -0.004145
0 14 U U 0.004502
0 14 U G 0.005515
0 14 U - -0.002506
0 14 G A -0.000002
0 14 G C -0.000002
0 14 G U 0.000948
0 14 G G 0.000007
0 14 G - -0.000009
0 14 - A 0.001690
0 14 - C 0.000005
0 14 - U -0.000004
0 14 - G 0.000002
0 14 - - -0.000009
0 15 A A 0.000459
0 15 A C 0.000004
0 15 A U 0.000201
0 15 A G 0.000002
0 15 A - -0.000002
0 15 C A -0.000007
0 15 C C -0.000004
0 15 C U -0.000008
0 15 C G -0.000008
0 15 C - -0.000009
0 15 U A 0.001435
0 15 U C -0.045494
0 15 U U 0.000054
0 15 U G 0.003623
0 15 U - -0.002635
0 15 G A -0.000003
0 15 G C 0.000093
0 15 G U 0.000892
0 15 G G -0.000008
0 15 G - 0.000006
0 15 - A 0.002328
0 15 - C 0.000003
0 15 - U 0.000002
0 15 - G -0.000008
0 15 - - -0.000012
0 16 A A 0.002459
0 16 A C 0.000003
0 16 A U 0.000004
0 16 A G 0.000004
0 16 A - -0.000007
0 16 C A -0.000007
0 16 C C -0.000002
0 16 C U 0.000001
0 16 C G 0.000002
0 16 C - -0.000017
0 16 U A -0.035131
0 16 U C -0.001815
0 16 U U 0.005588
0 16 U G 0.000791
0 16 U - -0.002533
0 16 G A -0.000007
0 16 G C 0.000004
0 16 G U 0.000953
0 16 G G -0.000004
0 16 G - -0.000010
0 16 - A 0.002287
0 16 - C -0.000003
0 16 - U 0.000004
0 16 - G 0.000004
0 16 - - -0.000012
0 17 A A 0.008282
0 17 A C 0.000010
0 17 A U -0.000001
0 17 A G 0.000007
0 17 A - 0.000002
0 17 C A -0.000004
0 17 C C -0.000001
0 17 C U -0.000001
0 17 C G -0.000007
0 17 C - 0.000550
0 17 U A -0.119834
0 17 U C 0.006008
0 17 U U 0.002369
0 17 U G 0.104329
0 17 U - -0.065775
0 17 G A 0.000888
0 17 G C -0.000001
0 17 G U -0.000001
0 17 G G -0.000005
0 17 G - -0.000005
0 17 - A 0.004402
0 17 - C -0.000001
0 17 - U -0.000001
0 17 - G 0.000011
0 17 - - -0.000011
0 18 A A -0.000002
0 18 A C -0.000002
0 18 A U 0.009234
0 18 A G 0.000004
0 18 A - -0.000008
0 18 C A -0.000002
0 18 C C -0.000002
0 18 C U -0.034725
0 18 C G -0.000002
0 18 C - 0.002712
0 18 U A 0.006543
0 18 U C 0.011616
0 18 U U 0.001245
0 18 U G -0.000246
0 18 U - -0.044751
0 18 G A -0.000002
0 18 G C -0.000001
0 18 G U 0.000898
0 18 G G 0.000002
0 18 G - -0.000006
0 18 - A -0.000004
0 18 - C -0.000002
0 18 - U 0.005211
0 18 - G 0.000001
0 18 - - -0.000000
0 19 A A 0.055175
0 19 A C 0.000004
0 19 A U 0.000002
0 19 A G 0.000002
0 19 A - 0.000002
0 19 C A -0.000281
0 19 C C 0.000002
0 19 C U 0.000002
0 19 C G 0.000002
0 19 C - 0.000001
0 19 U A -0.266641
0 19 U C 0.001468
0 19 U U 0.005713
0 19 U G 0.012227
0 19 U - 0.000956
0 19 G A 0.000922
0 19 G C 0.000002
0 19 G U 0.000002
0 19 G G -0.000003
0 19 G - 0.000002
0 19 - A 0.077553
0 19 - C 0.000002
0 19 - U 0.000002
0 19 - G 0.000002
0 19 - - 0.000005
0 20 A A 0.010033
0 20 A C 0.000010
0 20 A U 0.000012
0 20 A G 0.000006
0 20 A - 0.000004
0 20 C A -0.001479
0 20 C C 0.000012
0 20 C U 0.000012
0 20 C G 0.000012
0 20 C - 0.000550
0 20 U A -0.097987
0 20 U C 0.002730
0 20 U U 0.000000
0 20 U G 0.000005
0 20 U - -0.000002
0 20 G A 0.000679
0 20 G C 0.000012
0 20 G U 0.000012
0 20 G G 0.000012
0 20 G - 0.000012
0 20 - A 0.025579
0 20 - C 0.000012
0 20 - U 0.000012
0 20 - G 0.000012
0 20 - - -0.000005
0 21 A A 0.000003
0 21 A C 0.000165
0 21 A U 0.000007
0 21 A G 0.000008
0 21 A - 0.000007
0 21 C A -0.000009
0 21 C C 0.000010
0 21 C U 0.000007
0 21 C G -0.000221
0 21 C - -0.000003
0 21 U A -0.054993
0 21 U C -0.000245
0 21 U U 0.000799
0 21 U G 0.001453
0 21 U - 0.019537
0 21 G A 0.000965
0 21 G C -0.000009
0 21 G U 0.000007
0 21 G G -0.000000
0 21 G - 0.000005
0 21 - A 0.000713
0 21 - C 0.000005
0 21 - U -0.000003
0 21 - G -0.000005
0 21 - - -0.000010
0 22 A A 0.000002
0 22 A C 0.001995
0 22 A U 0.000003
0 22 A G -0.000003
0 22 A - -0.000003
0 22 C A 0.000000
0 22 C C -0.000005
0 22 C U -0.000005
0 22 C G 0.000609
0 22 C - 0.000010
0 22 U A -0.003266
0 22 U C -0.177660
0 22 U U 0.006405
0 22 U G 0.002359
0 22 U - 0.070292
0 22 G A 0.000012
0 22 G C 0.018487
0 22 G U 0.000896
0 22 G G -0.000003
0 22 G - 0.000005
0 22 - A 0.000721
0 22 - C 0.000003
0 22 - U 0.001116
0 22 - G 0.000241
0 22 - - 0.000000
0 23 A A -0.000003
0 23 A C 0.016790
0 23 A U 0.000432
0 23 A G 0.000012
0 23 A - -0.000003
0 23 C A 0.000001
0 23 C C -0.032477
0 23 C U 0.003697
0 23 C G 0.000010
0 23 C - -0.000003
0 23 U A -0.000070
0 23 U C -0.000045
0 23 U U -0.188220
0 23 U G 0.000295
0 23 U - 0.072250
0 23 G A -0.000003
0 23 G C 0.000905
0 23 G U 0.000011
0 23 G G -0.000000
0 23 G - -0.000003
0 23 - A -0.000003
0 23 - C 0.038492
0 23 - U 0.001136
0 23 - G 0.000111
0 23 - - -0.000000
0 24 A A 0.000011
0 24 A C 0.000011
0 24 A U 0.000194
0 24 A G 0.000002
0 24 A - 0.000008
0 24 C A 0.000000
0 24 C C 0.000478
0 24 C U -0.000004
0 24 C G -0.000009
0 24 C - 0.000008
0 24 U A 0.000174
0 24 U C -0.076884
0 24 U U -0.004288
0 24 U G -0.000682
0 24 U - 0.040807
0 24 G A -0.000010
0 24 G C -0.000003
0 24 G U 0.000881
0 24 G G 0.000002
0 24 G - 0.000008
0 24 - A -0.000006
0 24 - C -0.000000
0 24 - U 0.002319
0 24 - G -0.000008
0 24 - - -0.000009
0 25 A A 0.000819
0 25 A C -0.000001
0 25 A U 0.000009
0 25 A G 0.000007
0 25 A - 0.000009
0 25 C A -0.000002
0 25 C C 0.000009
0 25 C U -0.000007
0 25 C G -0.000017
0 25 C - -0.000006
0 25 U A -0.013436
0 25 U C -0.000780
0 25 U U -0.001535
0 25 U G -0.002272
0 25 U - 0.018097
0 25 G A -0.000002
0 25 G C -0.000005
0 25 G U -0.000009
0 25 G G 0.000885
0 25 G - -0.000006
0 25 - A 0.000412
0 25 - C -0.000005
0 25 - U 0.000001
0 25 - G 0.000535
0 25 - - -0.000007
0 26 A A -0.000005
0 26 A C -0.000006
0 26 A U 0.000005
0 26 A G 0.001986
0 26 A - 0.000005
0 26 C A -0.000005
0 26 C C -0.000006
0 26 C U -0.000006
0 26 C G -0.000221
0 26 C - 0.000006
0 26 U A -0.007671
0 26 U C 0.000612
0 26 U U -0.000529
0 26 U G -0.006382
0 26 U - 0.004143
0 26 G A -0.000005
0 26 G C 0.000004
0 26 G U -0.000002
0 26 G G 0.000352
0 26 G - -0.000006
0 26 - A 0.000551
0 26 - C -0.000006
0 26 - U 0.000004
0 26 - G 0.002953
0 26 - - -0.000004
0 27 A A 0.000005
0 27 A C -0.000002
0 27 A U -0.000007
0 27 A G 0.010082
0 27 A - -0.000002
0 27 C A -0.000001
0 27 C C -0.000002
0 27 C U -0.000002
0 27 C G -0.000094
0 27 C - -0.000002
0 27 U A -0.005882
0 27 U C 0.009460
0 27 U U 0.000117
0 27 U G -0.094024
0 27 U - 0.002272
0 27 G A -0.000002
0 27 G C -0.000002
0 27 G U -0.000002
0 27 G G 0.000652
0 27 G - 0.000009
0 27 - A 0.000662
0 27 - C -0.000002
0 27 - U -0.000002
0 27 - G 0.021777
0 27 - - 0.000002
0 28 A A 0.000008
0 28 A C 0.000084
0 28 A U -0.000001
0 28 A G 0.000003
0 28 A - 0.000010
0 28 C A -0.000008
0 28 C C -0.000195
0 28 C U 0.000005
0 28 C G 0.000008
0 28 C - -0.000004
0 28 U A 0.002631
0 28 U C -0.041166
0 28 U U -0.009381
0 28 U G -0.000348
0 28 U - 0.031382
0 28 G A -0.000004
0 28 G C 0.000881
0 28 G U 0.000001
0 28 G G 0.000000
0 28 G - 0.000008
0 28 - A -0.000005
0 28 - C 0.001815
0 28 - U -0.000005
0 28 - G 0.000008
0 28 - - -0.000009
0 29 A A 0.002738
0 29 A C 0.000013
0 29 A U 0.000008
0 29 A G 0.000013
0 29 A - 0.000012
0 29 C A 0.000003
0 29 C C 0.000013
0 29 C U 0.000014
0 29 C G -0.000011
0 29 C - 0.000009
0 29 U A -0.342506
0 29 U C 0.035927
0 29 U U -0.002406
0 29 U G -0.000530
0 29 U - 0.173699
0 29 G A 0.000932
0 29 G C 0.000013
0 29 G U 0.000000
0 29 G G 0.000004
0 29 G - -0.000004
0 29 - A 0.039269
0 29 - C 0.000013
0 29 - U 0.000013
0 29 - G 0.000752
0 29 - - -0.000011
0 30 A A 0.000011
0 30 A C 0.000008
0 30 A U -0.000005
0 30 A G 0.000312
0 30 A - -0.000005
0 30 C A -0.000007
0 30 C C 0.000006
0 30 C U 0.000007
0 30 C G -0.080222
0 30 C - 0.000001
0 30 U A -0.001603
0 30 U C -0.006591
0 30 U U 0.003100
0 30 U G -0.003291
0 30 U - 0.039910
0 30 G A -0.000006
0 30 G C -0.000001
0 30 G U 0.000008
0 30 G G 0.000932
0 30 G - -0.000011
0 30 - A -0.000002
0 30 - C 0.000648
0 30 - U 0.000011
0 30 - G 0.002983
0 30 - - -0.000007
0 31 A A -0.000001
0 31 A C 0.000002
0 31 A U 0.000006
0 31 A G 0.000004
0 31 A - 0.000002
0 31 C A -0.000005
0 31 C C 0.000002
0 31 C U -0.000010
0 31 C G -0.000095
0 31 C - -0.000008
0 31 U A -0.007297
0 31 U C -0.010856
0 31 U U -0.000649
0 31 U G -0.007094
0 31 U - 0.037774
0 31 G A 0.000007
0 31 G C -0.000004
0 31 G U -0.000014
0 31 G G 0.000941
0 31 G - -0.000178
0 31 - A -0.000005
0 31 - C 0.000521
0 31 - U 0.000003
0 31 - G 0.000000
0 31 - - -0.000014
0 32 A A 0.000000
0 32 A C 0.000003
0 32 A U 0.000072
0 32 A G 0.000001
0 32 A - 0.000001
0 32 C A 0.000004
0 32 C C 0.000001
0 32 C U -0.000005
0 32 C G -0.000008
0 32 C - -0.000003
0 32 U A -0.003193
0 32 U C 0.004411
0 32 U U -0.003625
0 32 U G -0.019457
0 32 U - 0.010634
0 32 G A -0.000008
0 32 G C 0.000003
0 32 G U -0.000009
0 32 G G 0.000944
0 32 G - -0.000014
0 32 - A -0.000010
0 32 - C 0.000006
0 32 - U 0.000569
0 32 - G -0.000007
0 32 - - -0.000002
0 33 A A -0.000009
0 33 A C -0.000009
0 33 A U 0.000034
0 33 A G -0.000002
0 33 A - -0.000003
0 33 C A -0.000001
0 33 C C -0.000002
0 33 C U 0.000009
0 33 C G -0.000006
0 33 C - 0.000003
0 33 U A 0.006102
0 33 U C 0.002238
0 33 U U -0.008085
0 33 U G -0.003734
0 33 U - -0.000246
0 33 G A 0.000006
0 33 G C -0.000012
0 33 G U 0.000955
0 33 G G -0.000006
0 33 G - -0.000003
0 33 - A 0.000268
0 33 - C 0.000005
0 33 - U -0.000003
0 33 - G 0.000004
0 33 - - -0.000007
0 34 A A 0.000001
0 34 A C 0.000007
0 34 A U 0.000010
0 34 A G 0.000009
0 34 A - 0.000460
0 34 C A -0.000004
0 34 C C -0.000005
0 34 C U -0.000010
0 34 C G 0.000005
0 34 C - -0.000060
0 34 U A -0.000848
0 34 U C 0.007020
0 34 U U 0.040750
0 34 U G -0.111681
0 34 U - 0.001119
0 34 G A 0.000307
0 34 G C -0.000005
0 34 G U -0.016882
0 34 G G 0.000002
0 34 G - 0.000941
0 34 - A -0.000005
0 34 - C -0.000007
0 34 - U 0.000003
0 34 - G 0.001347
0 34 - - -0.000006
0 35 A A -0.000003
0 35 A C 0.000001
0 35 A U -0.000004
0 35 A G -0.000004
0 35 A - 0.000024
0 35 C A 0.000006
0 35 C C -0.000003
0 35 C U -0.000015
0 35 C G -0.000003
0 35 C - -0.000012
0 35 U A -0.007358
0 35 U C 0.001833
0 35 U U 0.001438
0 35 U G 0.001796
0 35 U - -0.000808
0 35 G A -0.000010
0 35 G C -0.000004
0 35 G U 0.000880
0 35 G G -0.000008
0 35 G - 0.000004
0 35 - A 0.000549
0 35 - C -0.000004
0 35 - U 0.000000
0 35 - G -0.000004
0 35 - - -0.000007
0 36 A A 0.000006
0 36 A C 0.000005
0 36 A U 0.000200
0 36 A G -0.000000
0 36 A - 0.000005
0 36 C A -0.000008
0 36 C C 0.000007
0 36 C U -0.000007
0 36 C G -0.000008
0 36 C - -0.033956
0 36 U A -0.002556
0 36 U C -0.001471
0 36 U U -0.026676
0 36 U G 0.003686
0 36 U - 0.018877
0 36 G A 0.000004
0 36 G C 0.000115
0 36 G U 0.000884
0 36 G G -0.000008
0 36 G - -0.000007
0 36 - A 0.001080
0 36 - C -0.000008
0 36 - U 0.000004
0 36 - G 0.000623
0 36 - - -0.000010
0 37 A A -0.000004
0 37 A C -0.000006
0 37 A U 0.000000
0 37 A G 0.000001
0 37 A - 0.000144
0 37 C A -0.000011
0 37 C C -0.000006
0 37 C U -0.000003
0 37 C G -0.000006
0 37 C - -0.000163
0 37 U A 0.005527
0 37 U C 0.001128
0 37 U U -0.001672
0 37 U G -0.000792
0 37 U - -0.002792
0 37 G A -0.032006
0 37 G C 0.000959
0 37 G U 0.000006
0 37 G G 0.000003
0 37 G - 0.000011
0 37 - A 0.001952
0 37 - C -0.000006
0 37 - U 0.000008
0 37 - G 0.000001
0 37 - - -0.000011
0 38 A A 0.000003
0 38 A C -0.000001
0 38 A U 0.000007
0 38 A G 0.000019
0 38 A - -0.000009
0 38 C A 0.000005
0 38 C C -0.000000
0 38 C U -0.000018
0 38 C G -0.000016
0 38 C - 0.000002
0 38 U A -0.007912
0 38 U C 0.000170
0 38 U U -0.001235
0 38 U G 0.001675
0 38 U - 0.005884
0 38 G A 0.000952
0 38 G C 0.000006
0 38 G U 0.000002
0 38 G G -0.000000
0 38 G - -0.000018
0 38 - A -0.000000
0 38 - C -0.000002
0 38 - U 0.001143
0 38 - G 0.000004
0 38 - - -0.000000
0 39 A A 0.000003
0 39 A C 0.000006
0 39 A U 0.000120
0 39 A G 0.000006
0 39 A - 0.000009
0 39 C A -0.030254
0 39 C C -0.000004
0 39 C U -0.000002
0 39 C G -0.000012
0 39 C - 0.000002
0 39 U A 0.001286
0 39 U C -0.001393
0 39 U U -0.008812
0 39 U G 0.012655
0 39 U - 0.001062
0 39 G A 0.000017
0 39 G C 0.000959
0 39 G U -0.000009
0 39 G G -0.000005
0 39 G - -0.000007
0 39 - A 0.000596
0 39 - C -0.000006
0 39 - U -0.000005
0 39 - G -0.000002
0 39 - - -0.000003
0 40 A A 0.000090
0 40 A C 0.000006
0 40 A U -0.000003
0 40 A G -0.000008
0 40 A - 0.000006
0 40 C A 0.000000
0 40 C C -0.000018
0 40 C U -0.000009
0 40 C G 0.000066
0 40 C - 0.000007
0 40 U A 0.000079
0 40 U C 0.000917
0 40 U U -0.029309
0 40 U G -0.007075
0 40 U - 0.017139
0 40 G A 0.000002
0 40 G C 0.000998
0 40 G U -0.000006
0 40 G G 0.000004
0 40 G - 0.000000
0 40 - A 0.000009
0 40 - C -0.000006
0 40 - U -0.000007
0 40 - G 0.000570
0 40 - - -0.000001
0 41 A A 0.000008
0 41 A C -0.000010
0 41 A U -0.000004
0 41 A G 0.000005
0 41 A - -0.000000
0 41 C A 0.000003
0 41 C C -0.000013
0 41 C U -0.000023
0 41 C G 0.000006
0 41 C - 0.000007
0 41 U A -0.001105
0 41 U C -0.005152
0 41 U U -0.001683
0 41 U G -0.000273
0 41 U - 0.014238
0 41 G A 0.000009
0 41 G C 0.000917
0 41 G U 0.000005
0 41 G G -0.000004
0 41 G - -0.000130
0 41 - A -0.000009
0 41 - C 0.000517
0 41 - U 0.000517
0 41 - G -0.000010
0 41 - - 0.000009
0 42 A A 0.000007
0 42 A C 0.000006
0 42 A U 0.003592
0 42 A G -0.000000
0 42 A - 0.000012
0 42 C A -0.000005
0 42 C C -0.000010
0 42 C U -0.000013
0 42 C G 0.000007
0 42 C - 0.000003
0 42 U A -0.000604
0 42 U C 0.003439
0 42 U U -0.111719
0 42 U G 0.009769
0 42 U - 0.020175
0 42 G A 0.000007
0 42 G C -0.000003
0 42 G U 0.000940
0 42 G G 0.000007
0 42 G - -0.000002
0 42 - A 0.000171
0 42 - C 0.000007
0 42 - U 0.002270
0 42 - G 0.000007
0 42 - - 0.000007
0 43 A A 0.000000
0 43 A C 0.000003
0 43 A U -0.000000
0 43 A G 0.000038
0 43 A - 0.000010
0 43 C A -0.000009
0 43 C C 0.000002
0 43 C U -0.000002
0 43 C G -0.000259
0 43 C - 0.000002
0 43 U A -0.000926
0 43 U C 0.000359
0 43 U U 0.000386
0 43 U G -0.006869
0 43 U - 0.001677
0 43 G A -0.000011
0 43 G C 0.000009
0 43 G U 0.000010
0 43 G G 0.000889
0 43 G - 0.000008
0 43 - A -0.000006
0 43 - C 0.000002
0 43 - U 0.000010
0 43 - G 0.000432
0 43 - - 0.000002
0 44 A A 0.012506
0 44 A C 0.000005
0 44 A U 0.000005
0 44 A G 0.000005
0 44 A - 0.000004
0 44 C A -0.000427
0 44 C C 0.000005
0 44 C U 0.000005
0 44 C G 0.000005
0 44 C - 0.000005
0 44 U A -0.093042
0 44 U C 0.001198
0 44 U U 0.000013
0 44 U G 0.000007
0 44 U - 0.000389
0 44 G A 0.000750
0 44 G C 0.000005
0 44 G U 0.000005
0 44 G G 0.000005
0 44 G - 0.000005
0 44 - A 0.002308
0 44 - C 0.000005
0 44 - U 0.000034
0 44 - G 0.000005
0 44 - - 0.000005
0 45 A A 0.000002
0 45 A C 0.004830
0 45 A U 0.000002
0 45 A G 0.000002
0 45 A - 0.000004
0 45 C A 0.000002
0 45 C C -0.000137
0 45 C U -0.000008
0 45 C G 0.000002
0 45 C - 0.000002
0 45 U A 0.000288
0 45 U C -0.038160
0 45 U U -0.005686
0 45 U G 0.001492
0 45 U - -0.000005
0 45 G A 0.000002
0 45 G C 0.000568
0 45 G U -0.000001
0 45 G G 0.000002
0 45 G - 0.000002
0 45 - A 0.000002
0 45 - C 0.000113
0 45 - U 0.000628
0 45 - G 0.000002
0 45 - - 0.000003
0 46 A A -0.000003
0 46 A C 0.000000
0 46 A U 0.000000
0 46 A G 0.008122
0 46 A - -0.000004
0 46 C A 0.000000
0 46 C C 0.000000
0 46 C U 0.000000
0 46 C G -0.000641
0 46 C - 0.000000
0 46 U A 0.000831
0 46 U C -0.000000
0 46 U U 0.000671
0 46 U G -0.049645
0 46 U - 0.000956
0 46 G A 0.000000
0 46 G C 0.000000
0 46 G U 0.000000
0 46 G G 0.000563
0 46 G - 0.000000
0 46 - A 0.000626
0 46 - C 0.000000
0 46 - U 0.000000
0 46 - G 0.001894
0 46 - - 0.000000
0 47 A A 0.000000
0 47 A C 0.000009
0 47 A U 0.000009
0 47 A G 0.001190
0 47 A - 0.000004
0 47 C A -0.000015
0 47 C C 0.000009
0 47 C U 0.000009
0 47 C G 0.000001
0 47 C - 0.000009
0 47 U A 0.000383
0 47 U C 0.000003
0 47 U U 0.003686
0 47 U G -0.051808
0 47 U - 0.000005
0 47 G A -0.000814
0 47 G C 0.000009
0 47 G U 0.000009
0 47 G G 0.001126
0 47 G - 0.000009
0 47 - A 0.000005
0 47 - C 0.000009
0 47 - U 0.000009
0 47 - G 0.002573
0 47 - - 0.000009
0 48 A A 0.000003
0 48 A C 0.003408
0 48 A U -0.000003
0 48 A G 0.000003
0 48 A - 0.000003
0 48 C A 0.000003
0 48 C C -0.002312
0 48 C U 0.000003
0 48 C G 0.000007
0 48 C - 0.000357
0 48 U A 0.001445
0 48 U C -0.000287
0 48 U U -0.002069
0 48 U G 0.000419
0 48 U - -0.000005
0 48 G A 0.000003
0 48 G C 0.000321
0 48 G U 0.000003
0 48 G G 0.000003
0 48 G - 0.000003
0 48 - A 0.000003
0 48 - C 0.002386
0 48 - U 0.000003
0 48 - G 0.000003
0 48 - - 0.000003
0 49 A A 0.000005
0 49 A C 0.000007
0 49 A U 0.000005
0 49 A G 0.000168
0 49 A - 0.000011
0 49 C A 0.000004
0 49 C C -0.000002
0 49 C U -0.000007
0 49 C G -0.000004
0 49 C - 0.000485
0 49 U A 0.007153
0 49 U C 0.007064
0 49 U U 0.000030
0 49 U G -0.038838
0 49 U - -0.008074
0 49 G A 0.000001
0 49 G C 0.000002
0 49 G U 0.000046
0 49 G G 0.000958
0 49 G - -0.000007
0 49 - A -0.000007
0 49 - C 0.000007
0 49 - U 0.000003
0 49 - G 0.000334
0 49 - - 0.000004
0 50 A A -0.000002
0 50 A C -0.000002
0 50 A U 0.000352
0 50 A G 0.000009
0 50 A - 0.000012
0 50 C A 0.000001
0 50 C C -0.000002
0 50 C U -0.000002
0 50 C G -0.093493
0 50 C - 0.000009
0 50 U A 0.000731
0 50 U C 0.005199
0 50 U U -0.001219
0 50 U G 0.014825
0 50 U - -0.002480
0 50 G A 0.000013
0 50 G C -0.000002
0 50 G U 0.000275
0 50 G G 0.000896
0 50 G - 0.000002
0 50 - A -0.000003
0 50 - C -0.000002
0 50 - U 0.000515
0 50 - G 0.001456
0 50 - - 0.000003
0 51 A A -0.000004
0 51 A C -0.000000
0 51 A U -0.000004
0 51 A G 0.000009
0 51 A - -0.000000
0 51 C A -0.000001
0 51 C C -0.000002
0 51 C U -0.000010
0 51 C G -0.000014
0 51 C - 0.000008
0 51 U A -0.007818
0 51 U C 0.017139
0 51 U U -0.004678
0 51 U G -0.000129
0 51 U - 0.001738
0 51 G A 0.000951
0 51 G C -0.000002
0 51 G U -0.000008
0 51 G G 0.000007
0 51 G - -0.000002
0 51 - A 0.001435
0 51 - C -0.000012
0 51 - U 0.000009
0 51 - G -0.000010
0 51 - - 0.000008
0 52 A A -0.000001
0 52 A C -0.000004
0 52 A U -0.000001
0 52 A G 0.000487
0 52 A - -0.000003
0 52 C A -0.000010
0 52 C C -0.000008
0 52 C U -0.000008
0 52 C G 0.000031
0 52 C - -0.000004
0 52 U A -0.002695
0 52 U C -0.008945
0 52 U U 0.005535
0 52 U G -0.015064
0 52 U - 0.006526
0 52 G A -0.000003
0 52 G C 0.000005
0 52 G U 0.000912
0 52 G G 0.000010
0 52 G - -0.000011
0 52 - A 0.002812
0 52 - C 0.000007
0 52 - U -0.000001
0 52 - G -0.000003
0 52 - - -0.000011
0 53 A A 0.000036
0 53 A C 0.000004
0 53 A U -0.000006
0 53 A G 0.000007
0 53 A - -0.000004
0 53 C A -0.000013
0 53 C C 0.000002
0 53 C U -0.004491
0 53 C G 0.000384
0 53 C - -0.000009
0 53 U A -0.012121
0 53 U C 0.001357
0 53 U U 0.015919
0 53 U G -0.004324
0 53 U - -0.002378
0 53 G A 0.000954
0 53 G C -0.000001
0 53 G U -0.000004
0 53 G G -0.000000
0 53 G - -0.000011
0 53 - A 0.001196
0 53 - C -0.000005
0 53 - U 0.000001
0 53 - G -0.000004
0 53 - - 0.000006
0 54 A A 0.000019
0 54 A C 0.000007
0 54 A U 0.000004
0 54 A G 0.000005
0 54 A - -0.000004
0 54 C A -0.000016
0 54 C C -0.000001
0 54 C U 0.000002
0 54 C G -0.000003
0 54 C - 0.000008
0 54 U A -0.008978
0 54 U C 0.005553
0 54 U U -0.000641
0 54 U G 0.003141
0 54 U - -0.002366
0 54 G A 0.000875
0 54 G C -0.000007
0 54 G U 0.000003
0 54 G G 0.000009
0 54 G - -0.000014
0 54 - A 0.001111
0 54 - C 0.000003
0 54 - U 0.000007
0 54 - G 0.000001
0 54 - - 0.000004
0 55 A A 0.003355
0 55 A C -0.000001
0 55 A U 0.000009
0 55 A G 0.000010
0 55 A - 0.000007
0 55 C A -0.072009
0 55 C C -0.000004
0 55 C U 0.000008
0 55 C G -0.000004
0 55 C - 0.000010
0 55 U A 0.001990
0 55 U C 0.003120
0 55 U U -0.002222
0 55 U G 0.003611
0 55 U - -0.002826
0 55 G A 0.000898
0 55 G C 0.000003
0 55 G U 0.000219
0 55 G G -0.000001
0 55 G - -0.000004
0 55 - A 0.000010
0 55 - C 0.000008
0 55 - U 0.001023
0 55 - G 0.000009
0 55 - - 0.000001
0 56 A A -0.000001
0 56 A C -0.000002
0 56 A U 0.000038
0 56 A G -0.000000
0 56 A - -0.000002
0 56 C A 0.000000
0 56 C C -0.000008
0 56 C U 0.000003
0 56 C G 0.000024
0 56 C - -0.000007
0 56 U A 0.000159
0 56 U C 0.000227
0 56 U U -0.007908
0 56 U G 0.002226
0 56 U - 0.001517
0 56 G A 0.000002
0 56 G C 0.000005
0 56 G U 0.000959
0 56 G G -0.000001
0 56 G - -0.000003
0 56 - A 0.000003
0 56 - C 0.000001
0 56 - U -0.000003
0 56 - G 0.000545
0 56 - - 0.000000
0 57 A A 0.000366
0 57 A C 0.000001
0 57 A U 0.000001
0 57 A G 0.000002
0 57 A - 0.000002
0 57 C A -0.000006
0 57 C C 0.000005
0 57 C U -0.094099
0 57 C G 0.000002
0 57 C - -0.000002
0 57 U A -0.004878
0 57 U C -0.000382
0 57 U U -0.000273
0 57 U G -0.000502
0 57 U - 0.029477
0 57 G A 0.000303
0 57 G C 0.000003
0 57 G U 0.000964
0 57 G G 0.000006
0 57 G - -0.008147
0 57 - A 0.000552
0 57 - C 0.000002
0 57 - U 0.001584
0 57 - G 0.000005
0 57 - - 0.000008
0 58 A A 0.000002
0 58 A C -0.000006
0 58 A U 0.000433
0 58 A G 0.000006
0 58 A - 0.000005
0 58 C A -0.112255
0 58 C C 0.000006
0 58 C U 0.000264
0 58 C G 0.000000
0 58 C - 0.002956
0 58 U A 0.000747
0 58 U C -0.000294
0 58 U U 0.017318
0 58 U G 0.000719
0 58 U - 0.000566
0 58 G A 0.000009
0 58 G C -0.000003
0 58 G U 0.000900
0 58 G G 0.000343
0 58 G - -0.000005
0 58 - A 0.000064
0 58 - C -0.000005
0 58 - U 0.000621
0 58 - G 0.000009
0 58 - - 0.000723
0 59 A A 0.000127
0 59 A C -0.000001
0 59 A U 0.000004
0 59 A G 0.000009
0 59 A - 0.000010
0 59 C A -0.027906
0 59 C C -0.000000
0 59 C U 0.000005
0 59 C G 0.000444
0 59 C - -0.000011
0 59 U A -0.001403
0 59 U C 0.004027
0 59 U U -0.003710
0 59 U G -0.001025
0 59 U - 0.001922
0 59 G A 0.000019
0 59 G C -0.000001
0 59 G U 0.000011
0 59 G G 0.000880
0 59 G - -0.000010
0 59 - A 0.001011
0 59 - C -0.000004
0 59 - U 0.000008
0 59 - G -0.000008
0 59 - - 0.000603
0 60 A A 0.000000
0 60 A C 0.000007
0 60 A U 0.000177
0 60 A G 0.000006
0 60 A - 0.000009
0 60 C A 0.000003
0 60 C C -0.000002
0 60 C U 0.000482
0 60 C G -0.036450
0 60 C - 0.000002
0 60 U A 0.000924
0 60 U C 0.004623
0 60 U U -0.010060
0 60 U G -0.000361
0 60 U - 0.002397
0 60 G A 0.000079
0 60 G C -0.000006
0 60 G U 0.000891
0 60 G G -0.000008
0 60 G - -0.000002
0 60 - A 0.000010
0 60 - C 0.000006
0 60 - U 0.001717
0 60 - G -0.000004
0 60 - - -0.000004
0 61 A A -0.000008
0 61 A C 0.000008
0 61 A U 0.000207
0 61 A G 0.000011
0 61 A - 0.000002
0 61 C A -0.000001
0 61 C C 0.000008
0 61 C U -0.000012
0 61 C G 0.000004
0 61 C - 0.000010
0 61 U A 0.008362
0 61 U C 0.001617
0 61 U U -0.055467
0 61 U G -0.002463
0 61 U - 0.007146
0 61 G A 0.000884
0 61 G C 0.000006
0 61 G U 0.000107
0 61 G G 0.000008
0 61 G - 0.000005
0 61 - A -0.000013
0 61 - C -0.000000
0 61 - U 0.000847
0 61 - G -0.000008
0 61 - - 0.000000
0 62 A A 0.000127
0 62 A C 0.000006
0 62 A U -0.000006
0 62 A G 0.000005
0 62 A - -0.000005
0 62 C A -0.000000
0 62 C C 0.000066
0 62 C U -0.000009
0 62 C G 0.000000
0 62 C - -0.000004
0 62 U A -0.001095
0 62 U C -0.000540
0 62 U U 0.006116
0 62 U G -0.030644
0 62 U - 0.002297
0 62 G A -0.000004
0 62 G C -0.000002
0 62 G U 0.000929
0 62 G G -0.000006
0 62 G - 0.000004
0 62 - A 0.000003
0 62 - C 0.000596
0 62 - U 0.000619
0 62 - G 0.000002
0 62 - - 0.000006
0 63 A A -0.000003
0 63 A C 0.000000
0 63 A U 0.000004
0 63 A G 0.000010
0 63 A - -0.000001
0 63 C A -0.000012
0 63 C C -0.000011
0 63 C U -0.000002
0 63 C G 0.000005
0 63 C - 0.000010
0 63 U A 0.011061
0 63 U C -0.005160
0 63 U U -0.001808
0 63 U G -0.001638
0 63 U - -0.000861
0 63 G A -0.000012
0 63 G C 0.000008
0 63 G U 0.000947
0 63 G G 0.000000
0 63 G - -0.000007
0 63 - A 0.000008
0 63 - C 0.000007
0 63 - U 0.001566
0 63 - G 0.000001
0 63 - - -0.000002
0 64 A A 0.000036
0 64 A C -0.000006
0 64 A U -0.000005
0 64 A G 0.000008
0 64 A - 0.000008
0 64 C A 0.000007
0 64 C C -0.000461
0 64 C U 0.000003
0 64 C G 0.000007
0 64 C - -0.000001
0 64 U A -0.001339
0 64 U C 0.003211
0 64 U U -0.002241
0 64 U G 0.000701
0 64 U - -0.002384
0 64 G A 0.000010
0 64 G C 0.000921
0 64 G U -0.000001
0 64 G G 0.000007
0 64 G - -0.000005
0 64 - A -0.000007
0 64 - C 0.000284
0 64 - U -0.000005
0 64 - G 0.000007
0 64 - - 0.000001
0 65 A A 0.000008
0 65 A C 0.000043
0 65 A U -0.000007
0 65 A G -0.000002
0 65 A - 0.000009
0 65 C A -0.000001
0 65 C C -0.000009
0 65 C U -0.000014
0 65 C G -0.000004
0 65 C - 0.000392
0 65 U A 0.003747
0 65 U C -0.006251
0 65 U U -0.000800
0 65 U G 0.002205
0 65 U - -0.005660
0 65 G A -0.000015
0 65 G C 0.000950
0 65 G U -0.000010
0 65 G G -0.000004
0 65 G - -0.000006
0 65 - A 0.000005
0 65 - C -0.000010
0 65 - U 0.001535
0 65 - G -0.000005
0 65 - - -0.000009
0 66 A A 0.000105
0 66 A C -0.000005
0 66 A U -0.000003
0 66 A G -0.000006
0 66 A - -0.000004
0 66 C A -0.000006