# NB_STEPS 3000
# UP_FREQ 1000
# TEMP 1.000000
# LAMBDA 0.010000
# ID_THRES 1.000000
# ALPHA 1.695263
0 0 A A 0.004508
0 0 C C 0.000003
0 0 U U 0.002859
0 0 G G -0.008809
0 0 - - -0.000976
0 1 A A 0.009074
0 1 A C -0.000002
0 1 A U 0.000010
0 1 A G 0.000225
0 1 A - 0.008891
0 1 C A 0.030849
0 1 C C -0.000004
0 1 C U -0.000004
0 1 C G -0.000004
0 1 C - 0.001947
0 1 U A -0.000001
0 1 U C 0.000768
0 1 U U -0.000004
0 1 U G 0.000015
0 1 U - 0.002955
0 1 G A -1.488694
0 1 G C 0.000002
0 1 G U 0.000842
0 1 G G 0.000010
0 1 G - 1.038918
0 1 - A 1.040232
0 1 - C 0.062808
0 1 - U 0.001638
0 1 - G 0.060174
0 1 - - -0.916849
0 2 A A -0.000006
0 2 A C 0.000002
0 2 A U 0.009006
0 2 A G 0.000002
0 2 A - 0.000002
0 2 C A 0.000002
0 2 C C 0.000002
0 2 C U 0.000215
0 2 C G 0.000002
0 2 C - 0.000002
0 2 U A 0.000002
0 2 U C 0.000002
0 2 U U 0.002465
0 2 U G -0.000008
0 2 U - 0.000002
0 2 G A 0.000002
0 2 G C 0.000591
0 2 G U -0.031494
0 2 G G 0.000990
0 2 G - 0.000911
0 2 - A -0.005721
0 2 - C 0.009588
0 2 - U -0.042658
0 2 - G 0.011582
0 2 - - 0.000953
0 3 A A 0.008718
0 3 A C -0.000004
0 3 A U -0.000002
0 3 A G 0.000008
0 3 A - 0.000004
0 3 C A 0.001563
0 3 C C 0.000004
0 3 C U 0.000004
0 3 C G 0.000004
0 3 C - 0.000006
0 3 U A 0.003732
0 3 U C 0.000004
0 3 U U -0.000002
0 3 U G 0.000004
0 3 U - 0.000004
0 3 G A -0.097971
0 3 G C -0.000002
0 3 G U 0.000008
0 3 G G 0.000642
0 3 G - 0.000003
0 3 - A -0.005641
0 3 - C 0.012405
0 3 - U 0.002635
0 3 - G -0.003046
0 3 - - 0.000497
0 4 A A -0.000003
0 4 A C 0.000004
0 4 A U -0.000006
0 4 A G 0.012388
0 4 A - -0.000001
0 4 C A -0.000001
0 4 C C -0.000001
0 4 C U -0.000001
0 4 C G 0.002114
0 4 C - -0.000001
0 4 U A 0.000512
0 4 U C -0.000008
0 4 U U 0.000013
0 4 U G 0.005944
0 4 U - -0.000001
0 4 G A -0.000002
0 4 G C 0.000012
0 4 G U -0.000001
0 4 G G -0.103814
0 4 G - -0.000005
0 4 - A -0.005082
0 4 - C 0.000074
0 4 - U -0.000003
0 4 - G -0.003585
0 4 - - 0.009025
0 5 A A 0.007428
0 5 A C 0.000000
0 5 A U 0.000000
0 5 A G 0.000008
0 5 A - -0.000006
0 5 C A 0.000040
0 5 C C 0.000000
0 5 C U 0.000000
0 5 C G 0.000000
0 5 C - 0.000000
0 5 U A 0.003741
0 5 U C 0.000000
0 5 U U -0.000002
0 5 U G -0.000006
0 5 U - 0.000000
0 5 G A -0.022672
0 5 G C 0.000921
0 5 G U 0.000004
0 5 G G 0.000005
0 5 G - 0.000004
0 5 - A -0.068416
0 5 - C 0.000000
0 5 - U 0.005828
0 5 - G -0.000004
0 5 - - 0.031380
0 6 A A -0.000005
0 6 A C 0.030628
0 6 A U 0.000008
0 6 A G -0.000005
0 6 A - 0.000007
0 6 C A -0.000005
0 6 C C 0.011274
0 6 C U -0.000005
0 6 C G -0.000005
0 6 C - -0.000005
0 6 U A 0.000000
0 6 U C 0.004445
0 6 U U 0.000008
0 6 U G -0.000005
0 6 U - -0.000005
0 6 G A 0.001578
0 6 G C -0.012457
0 6 G U 0.000659
0 6 G G 0.000006
0 6 G - 0.000001
0 6 - A 0.000578
0 6 - C -0.127010
0 6 - U -0.000012
0 6 - G 0.000001
0 6 - - 0.002328
0 7 A A 0.000000
0 7 A C 0.000000
0 7 A U 0.008377
0 7 A G 0.000000
0 7 A - 0.000000
0 7 C A 0.000000
0 7 C C 0.000000
0 7 C U 0.005895
0 7 C G -0.000002
0 7 C - 0.000000
0 7 U A -0.000007
0 7 U C 0.000000
0 7 U U 0.005602
0 7 U G 0.000000
0 7 U - 0.000000
0 7 G A 0.000005
0 7 G C -0.000004
0 7 G U -0.008233
0 7 G G -0.000004
0 7 G - 0.000412
0 7 - A 0.001667
0 7 - C 0.060436
0 7 - U -0.157714
0 7 - G 0.000011
0 7 - - 0.000009
0 8 A A 0.005775
0 8 A C -0.000002
0 8 A U -0.000002
0 8 A G -0.000002
0 8 A - -0.000002
0 8 C A -0.000002
0 8 C C -0.000002
0 8 C U -0.000002
0 8 C G -0.000002
0 8 C - -0.000002
0 8 U A 0.003068
0 8 U C -0.000002
0 8 U U -0.000002
0 8 U G -0.000002
0 8 U - -0.000002
0 8 G A -0.019805
0 8 G C 0.000011
0 8 G U -0.000001
0 8 G G 0.000008
0 8 G - 0.000002
0 8 - A -0.022864
0 8 - C -0.000002
0 8 - U -0.000002
0 8 - G 0.000722
0 8 - - 0.000007
0 9 A A -0.000006
0 9 A C 0.005481
0 9 A U -0.000006
0 9 A G -0.000006
0 9 A - -0.000006
0 9 C A -0.000006
0 9 C C -0.000001
0 9 C U -0.000006
0 9 C G -0.000006
0 9 C - -0.000006
0 9 U A -0.000006
0 9 U C 0.003011
0 9 U U -0.000006
0 9 U G -0.000006
0 9 U - -0.000006
0 9 G A -0.000006
0 9 G C -0.011982
0 9 G U -0.000006
0 9 G G 0.000893
0 9 G - -0.000006
0 9 - A -0.000008
0 9 - C -0.029451
0 9 - U 0.001240
0 9 - G 0.001681
0 9 - - -0.000006
0 10 A A 0.000001
0 10 A C 0.005433
0 10 A U 0.000001
0 10 A G 0.000001
0 10 A - 0.000001
0 10 C A 0.000001
0 10 C C 0.000005
0 10 C U 0.000001
0 10 C G 0.000001
0 10 C - 0.000001
0 10 U A 0.000001
0 10 U C 0.003016
0 10 U U 0.000001
0 10 U G 0.000001
0 10 U - 0.000009
0 10 G A 0.000900
0 10 G C -0.023533
0 10 G U -0.000007
0 10 G G 0.000005
0 10 G - -0.000009
0 10 - A 0.000006
0 10 - C -0.013612
0 10 - U -0.000010
0 10 - G -0.000004
0 10 - - -0.000001
0 11 A A -0.000001
0 11 A C -0.000001
0 11 A U 0.006479
0 11 A G -0.000001
0 11 A - -0.000001
0 11 C A -0.000001
0 11 C C -0.000001
0 11 C U 0.000315
0 11 C G -0.000001
0 11 C - -0.000001
0 11 U A -0.000001
0 11 U C -0.000001
0 11 U U 0.003206
0 11 U G -0.000001
0 11 U - -0.000001
0 11 G A 0.000003
0 11 G C 0.000004
0 11 G U -0.013569
0 11 G G 0.000011
0 11 G - 0.000007
0 11 - A 0.000011
0 11 - C -0.000006
0 11 - U -0.044950
0 11 - G -0.000004
0 11 - - -0.000001
0 12 A A 0.000012
0 12 A C 0.008400
0 12 A U 0.000006
0 12 A G 0.000012
0 12 A - 0.000012
0 12 C A 0.000012
0 12 C C 0.002574
0 12 C U 0.000012
0 12 C G 0.000012
0 12 C - 0.000012
0 12 U A 0.000012
0 12 U C 0.003871
0 12 U U 0.000001
0 12 U G 0.000007
0 12 U - 0.000012
0 12 G A -0.000006
0 12 G C -0.087498
0 12 G U 0.000007
0 12 G G -0.000005
0 12 G - 0.000657
0 12 - A -0.000000
0 12 - C -0.006986
0 12 - U -0.000011
0 12 - G 0.001087
0 12 - - 0.001463
0 13 A A 0.000011
0 13 A C 0.005465
0 13 A U -0.000005
0 13 A G 0.000003
0 13 A - 0.000003
0 13 C A 0.000003
0 13 C C 0.001426
0 13 C U 0.000003
0 13 C G 0.000003
0 13 C - -0.000006
0 13 U A 0.000003
0 13 U C 0.003551
0 13 U U 0.000003
0 13 U G 0.000003
0 13 U - 0.000003
0 13 G A 0.000003
0 13 G C -0.001571
0 13 G U 0.000008
0 13 G G 0.000003
0 13 G - 0.000005
0 13 - A 0.000513
0 13 - C -0.085958
0 13 - U -0.000763
0 13 - G 0.005332
0 13 - - 0.000371
0 14 A A 0.040077
0 14 A C 0.000013
0 14 A U 0.000008
0 14 A G 0.000013
0 14 A - 0.000008
0 14 C A 0.030483
0 14 C C 0.000003
0 14 C U 0.000013
0 14 C G 0.000008
0 14 C - 0.000013
0 14 U A 0.007258
0 14 U C 0.000013
0 14 U U 0.000009
0 14 U G 0.000013
0 14 U - 0.000013
0 14 G A 0.001471
0 14 G C 0.000010
0 14 G U -0.000049
0 14 G G 0.004545
0 14 G - 0.002415
0 14 - A -0.419490
0 14 - C 0.000621
0 14 - U 0.125100
0 14 - G -0.000001
0 14 - - 0.044922
0 15 A A -0.000004
0 15 A C 0.005509
0 15 A U -0.000004
0 15 A G -0.000004
0 15 A - -0.000003
0 15 C A -0.000004
0 15 C C 0.001158
0 15 C U -0.000004
0 15 C G -0.000004
0 15 C - -0.000004
0 15 U A -0.000004
0 15 U C 0.003488
0 15 U U -0.000004
0 15 U G -0.000004
0 15 U - -0.000004
0 15 G A 0.000005
0 15 G C -0.008063
0 15 G U 0.000004
0 15 G G 0.000003
0 15 G - -0.000005
0 15 - A 0.000601
0 15 - C -0.068637
0 15 - U -0.000001
0 15 - G 0.000006
0 15 - - -0.000007
0 16 A A 0.000000
0 16 A C 0.000000
0 16 A U 0.000000
0 16 A G 0.008720
0 16 A - 0.000000
0 16 C A 0.000000
0 16 C C 0.000000
0 16 C U 0.000000
0 16 C G 0.012499
0 16 C - 0.000000
0 16 U A 0.000000
0 16 U C 0.000000
0 16 U U 0.000000
0 16 U G 0.003879
0 16 U - 0.000000
0 16 G A 0.001312
0 16 G C 0.000000
0 16 G U 0.000003
0 16 G G -0.006845
0 16 G - 0.000000
0 16 - A 0.000957
0 16 - C 0.000885
0 16 - U 0.000749
0 16 - G -0.116225
0 16 - - 0.000004
0 17 A A -0.000004
0 17 A C -0.000004
0 17 A U 0.008233
0 17 A G -0.000004
0 17 A - -0.000004
0 17 C A -0.000004
0 17 C C -0.000004
0 17 C U 0.008290
0 17 C G -0.000004
0 17 C - -0.000004
0 17 U A -0.000004
0 17 U C 0.000010
0 17 U U 0.003882
0 17 U G -0.000004
0 17 U - -0.000004
0 17 G A -0.000004
0 17 G C -0.000003
0 17 G U -0.004250
0 17 G G 0.000000
0 17 G - 0.000013
0 17 - A 0.000287
0 17 - C 0.002540
0 17 - U -0.096645
0 17 - G 0.000152
0 17 - - 0.000004
0 18 A A 0.000008
0 18 A C 0.000008
0 18 A U 0.000008
0 18 A G 0.004830
0 18 A - 0.000008
0 18 C A 0.000008
0 18 C C 0.000008
0 18 C U 0.000008
0 18 C G 0.000000
0 18 C - 0.000008
0 18 U A 0.000008
0 18 U C 0.000008
0 18 U U 0.000008
0 18 U G 0.002949
0 18 U - 0.000008
0 18 G A 0.000008
0 18 G C 0.000904
0 18 G U -0.000004
0 18 G G -0.018077
0 18 G - 0.000008
0 18 - A 0.000000
0 18 - C 0.000007
0 18 - U -0.000009
0 18 - G -0.012364
0 18 - - 0.000438
0 19 A A 0.000002
0 19 A C 0.000002
0 19 A U 0.000002
0 19 A G 0.005199
0 19 A - 0.000002
0 19 C A 0.000002
0 19 C C 0.000002
0 19 C U 0.000002
0 19 C G -0.000006
0 19 C - 0.000002
0 19 U A 0.000002
0 19 U C 0.000002
0 19 U U 0.000002
0 19 U G 0.002956
0 19 U - 0.000002
0 19 G A 0.000002
0 19 G C 0.000892
0 19 G U 0.000002
0 19 G G -0.016396
0 19 G - 0.000002
0 19 - A 0.000005
0 19 - C 0.001664
0 19 - U -0.000009
0 19 - G -0.018118
0 19 - - 0.000010
0 20 A A 0.000003
0 20 A C 0.000003
0 20 A U 0.005686
0 20 A G 0.000003
0 20 A - 0.000010
0 20 C A 0.000003
0 20 C C 0.000003
0 20 C U -0.000000
0 20 C G 0.000003
0 20 C - 0.000003
0 20 U A 0.000003
0 20 U C 0.000003
0 20 U U 0.003079
0 20 U G 0.000003
0 20 U - 0.000003
0 20 G A 0.000004
0 20 G C -0.000003
0 20 G U -0.016471
0 20 G G 0.000002
0 20 G - 0.000003
0 20 - A -0.000005
0 20 - C 0.000758
0 20 - U -0.027580
0 20 - G -0.000005
0 20 - - 0.000008
0 21 A A 0.000015
0 21 A C -0.000000
0 21 A U -0.000000
0 21 A G 0.011641
0 21 A - -0.000000
0 21 C A -0.000000
0 21 C C 0.000003
0 21 C U -0.000000
0 21 C G 0.025442
0 21 C - 0.000014
0 21 U A -0.000000
0 21 U C -0.000000
0 21 U U -0.000000
0 21 U G 0.013203
0 21 U - -0.000000
0 21 G A -0.000010
0 21 G C 0.000009
0 21 G U -0.000002
0 21 G G -0.000538
0 21 G - 0.000667
0 21 - A 0.007093
0 21 - C 0.006563
0 21 - U 0.000014
0 21 - G -0.207867
0 21 - - 0.001528
0 22 A A 0.000003
0 22 A C 0.004381
0 22 A U 0.000006
0 22 A G 0.000003
0 22 A - 0.000003
0 22 C A 0.000003
0 22 C C -0.000001
0 22 C U 0.000003
0 22 C G 0.000003
0 22 C - 0.000003
0 22 U A 0.000003
0 22 U C 0.003104
0 22 U U 0.000003
0 22 U G 0.000007
0 22 U - 0.000003
0 22 G A 0.000861
0 22 G C -0.007692
0 22 G U -0.000003
0 22 G G 0.000007
0 22 G - 0.000011
0 22 - A 0.000007
0 22 - C -0.039963
0 22 - U -0.000017
0 22 - G 0.002250
0 22 - - -0.000003
0 23 A A 0.008331
0 23 A C -0.000005
0 23 A U -0.000005
0 23 A G -0.000005
0 23 A - -0.000005
0 23 C A 0.002390
0 23 C C -0.000005
0 23 C U -0.000005
0 23 C G -0.000005
0 23 C - -0.000005
0 23 U A 0.003940
0 23 U C -0.000005
0 23 U U -0.000005
0 23 U G 0.000004
0 23 U - -0.000005
0 23 G A -0.094871
0 23 G C 0.000011
0 23 G U 0.000010
0 23 G G 0.000008
0 23 G - 0.000011
0 23 - A 0.000071
0 23 - C 0.000641
0 23 - U 0.000004
0 23 - G -0.000001
0 23 - - 0.000007
0 24 A A -0.000007
0 24 A C 0.008426
0 24 A U 0.000005
0 24 A G 0.000005
0 24 A - 0.000005
0 24 C A 0.000005
0 24 C C 0.006007
0 24 C U 0.000005
0 24 C G 0.000005
0 24 C - 0.000005
0 24 U A 0.000005
0 24 U C 0.003705
0 24 U U 0.000005
0 24 U G 0.000005
0 24 U - 0.000005
0 24 G A 0.000000
0 24 G C -0.006314
0 24 G U -0.000010
0 24 G G 0.000051
0 24 G - -0.000002
0 24 - A 0.004030
0 24 - C -0.097586
0 24 - U -0.000000
0 24 - G 0.000143
0 24 - - 0.001009
0 25 A A -0.000003
0 25 A C 0.007527
0 25 A U 0.000004
0 25 A G -0.000003
0 25 A - 0.000007
0 25 C A -0.000003
0 25 C C 0.010931
0 25 C U -0.000003
0 25 C G -0.000003
0 25 C - -0.000003
0 25 U A 0.000011
0 25 U C 0.003922
0 25 U U 0.000012
0 25 U G -0.000003
0 25 U - -0.000003
0 25 G A -0.000001
0 25 G C -0.165331
0 25 G U -0.000006
0 25 G G 0.000005
0 25 G - -0.000003
0 25 - A -0.002197
0 25 - C -0.003060
0 25 - U -0.000379
0 25 - G 0.019999
0 25 - - 0.041903
0 26 A A 0.000012
0 26 A C 0.007178
0 26 A U 0.000012
0 26 A G 0.000012
0 26 A - 0.000012
0 26 C A 0.000012
0 26 C C 0.001018
0 26 C U 0.000012
0 26 C G 0.000012
0 26 C - 0.000012
0 26 U A 0.000012
0 26 U C 0.003420
0 26 U U 0.000012
0 26 U G 0.000012
0 26 U - 0.000012
0 26 G A 0.000009
0 26 G C -0.010765
0 26 G U 0.000727
0 26 G G 0.000010
0 26 G - 0.000008
0 26 - A 0.000281
0 26 - C -0.068617
0 26 - U -0.000012
0 26 - G 0.000330
0 26 - - 0.000745
0 27 A A 0.000005
0 27 A C 0.000013
0 27 A U 0.004033
0 27 A G 0.000010
0 27 A - 0.000005
0 27 C A 0.000005
0 27 C C 0.000005
0 27 C U 0.003732
0 27 C G 0.000005
0 27 C - 0.000005
0 27 U A 0.000005
0 27 U C -0.000006
0 27 U U 0.004145
0 27 U G 0.000005
0 27 U - 0.000005
0 27 G A -0.000005
0 27 G C -0.000001
0 27 G U -0.014847
0 27 G G 0.000012
0 27 G - 0.000202
0 27 - A 0.000004
0 27 - C -0.005429
0 27 - U -0.091929
0 27 - G 0.007472
0 27 - - -0.000002
0 28 A A -0.000005
0 28 A C -0.000005
0 28 A U -0.000005
0 28 A G 0.007647
0 28 A - -0.000005
0 28 C A 0.000012
0 28 C C -0.000005
0 28 C U -0.000005
0 28 C G 0.001278
0 28 C - -0.000005
0 28 U A 0.000009
0 28 U C -0.000005
0 28 U U -0.000005
0 28 U G 0.003658
0 28 U - -0.000005
0 28 G A -0.000002
0 28 G C 0.000008
0 28 G U 0.000006
0 28 G G -0.012263
0 28 G - -0.000002
0 28 - A -0.005595
0 28 - C 0.016391
0 28 - U 0.001424
0 28 - G -0.088548
0 28 - - 0.005669
0 29 A A -0.000006
0 29 A C -0.000006
0 29 A U -0.000006
0 29 A G 0.008663
0 29 A - -0.000006
0 29 C A -0.000006
0 29 C C -0.000006
0 29 C U -0.000006
0 29 C G 0.014864
0 29 C - -0.000006
0 29 U A -0.000006
0 29 U C -0.000006
0 29 U U -0.000006
0 29 U G 0.003788
0 29 U - -0.000006
0 29 G A 0.000004
0 29 G C -0.000005
0 29 G U -0.000006
0 29 G G -0.004261
0 29 G - 0.000008
0 29 - A 0.000380
0 29 - C 0.000899
0 29 - U 0.000001
0 29 - G -0.110724
0 29 - - 0.000704
0 30 A A 0.000008
0 30 A C 0.000008
0 30 A U 0.000008
0 30 A G 0.022516
0 30 A - 0.000008
0 30 C A 0.000008
0 30 C C 0.000008
0 30 C U 0.000008
0 30 C G 0.032698
0 30 C - 0.000008
0 30 U A 0.000008
0 30 U C 0.000008
0 30 U U 0.000008
0 30 U G 0.004049
0 30 U - 0.000008
0 30 G A -0.000006
0 30 G C 0.000900
0 30 G U 0.000388
0 30 G G -0.004747
0 30 G - 0.000376
0 30 - A 0.000373
0 30 - C 0.001130
0 30 - U 0.002448
0 30 - G -0.178767
0 30 - - 0.012459
0 31 A A -0.000006
0 31 A C 0.007874
0 31 A U -0.000006
0 31 A G -0.000006
0 31 A - -0.000006
0 31 C A -0.000006
0 31 C C 0.009027
0 31 C U -0.000006
0 31 C G -0.000006
0 31 C - -0.000006
0 31 U A 0.000009
0 31 U C 0.003727
0 31 U U -0.000006
0 31 U G -0.000006
0 31 U - -0.000006
0 31 G A 0.002889
0 31 G C -0.019818
0 31 G U 0.000011
0 31 G G 0.000000
0 31 G - -0.000001
0 31 - A -0.000009
0 31 - C -0.079506
0 31 - U 0.000004
0 31 - G 0.000007
0 31 - - 0.000003
0 32 A A 0.007858
0 32 A C -0.000004
0 32 A U -0.000004
0 32 A G -0.000004
0 32 A - -0.000004
0 32 C A 0.001432
0 32 C C -0.000004
0 32 C U -0.000004
0 32 C G -0.000004
0 32 C - -0.000004
0 32 U A 0.003551
0 32 U C -0.000004
0 32 U U -0.000004
0 32 U G -0.000004
0 32 U - -0.000004
0 32 G A -0.006491
0 32 G C -0.000002
0 32 G U 0.000002
0 32 G G 0.000011
0 32 G - 0.000615
0 32 - A -0.077342
0 32 - C 0.000013
0 32 - U 0.000482
0 32 - G -0.000005
0 32 - - -0.000007
0 33 A A 0.007814
0 33 A C 0.000009
0 33 A U 0.000009
0 33 A G 0.000009
0 33 A - 0.000009
0 33 C A 0.005957
0 33 C C 0.000009
0 33 C U 0.000009
0 33 C G 0.000009
0 33 C - 0.000009
0 33 U A 0.003590
0 33 U C 0.000009
0 33 U U 0.000009
0 33 U G 0.000009
0 33 U - 0.000009
0 33 G A -0.005997
0 33 G C 0.000781
0 33 G U 0.000001
0 33 G G 0.000009
0 33 G - 0.000009
0 33 - A -0.086103
0 33 - C -0.000004
0 33 - U 0.000007
0 33 - G 0.000005
0 33 - - 0.000963
0 34 A A 0.000004
0 34 A C 0.006418
0 34 A U 0.000004
0 34 A G 0.000004
0 34 A - 0.000004
0 34 C A 0.000004
0 34 C C 0.000300
0 34 C U 0.000004
0 34 C G 0.000004
0 34 C - 0.000004
0 34 U A 0.000004
0 34 U C 0.003178
0 34 U U 0.000004
0 34 U G 0.000004
0 34 U - 0.000004
0 34 G A -0.000002
0 34 G C -0.005784
0 34 G U 0.000005
0 34 G G 0.000004
0 34 G - 0.000004
0 34 - A 0.000010
0 34 - C -0.050463
0 34 - U 0.000006
0 34 - G 0.000498
0 34 - - 0.000001
0 35 A A 0.000005
0 35 A C 0.000005
0 35 A U 0.000005
0 35 A G 0.007264
0 35 A - 0.000005
0 35 C A 0.000005
0 35 C C 0.000005
0 35 C U 0.000005
0 35 C G 0.000918
0 35 C - 0.000005
0 35 U A 0.000005
0 35 U C 0.000005
0 35 U U 0.000005
0 35 U G 0.003396
0 35 U - 0.000005
0 35 G A -0.000001
0 35 G C -0.000003
0 35 G U 0.000005
0 35 G G -0.004792
0 35 G - 0.000005
0 35 - A -0.000001
0 35 - C 0.001866
0 35 - U -0.000005
0 35 - G -0.069153
0 35 - - 0.000005
0 36 A A 0.000011
0 36 A C 0.000011
0 36 A U 0.006132
0 36 A G 0.000011
0 36 A - 0.000011
0 36 C A 0.000011
0 36 C C 0.000011
0 36 C U 0.000058
0 36 C G 0.000011
0 36 C - 0.000011
0 36 U A 0.000011
0 36 U C 0.000011
0 36 U U 0.003135
0 36 U G 0.000011
0 36 U - 0.000011
0 36 G A 0.000001
0 36 G C -0.000006
0 36 G U -0.034502
0 36 G G 0.000010
0 36 G - 0.000006
0 36 - A 0.000010
0 36 - C 0.000963
0 36 - U -0.016927
0 36 - G -0.000008
0 36 - - 0.000855
0 37 A A 0.006343
0 37 A C 0.000012
0 37 A U 0.000012
0 37 A G 0.000012
0 37 A - 0.000012
0 37 C A 0.000282
0 37 C C 0.000012
0 37 C U 0.000012
0 37 C G 0.000012
0 37 C - 0.000012
0 37 U A 0.003173
0 37 U C 0.000012
0 37 U U 0.000012
0 37 U G 0.000012
0 37 U - 0.000012
0 37 G A -0.007013
0 37 G C -0.000001
0 37 G U 0.000009
0 37 G G 0.000001
0 37 G - -0.000002
0 37 - A -0.050190
0 37 - C 0.000744
0 37 - U -0.000006
0 37 - G 0.000548
0 37 - - 0.001669
0 38 A A 0.000011
0 38 A C 0.000011
0 38 A U 0.008657
0 38 A G 0.000011
0 38 A - 0.000011
0 38 C A 0.000011
0 38 C C 0.000011
0 38 C U 0.014999
0 38 C G 0.000011
0 38 C - 0.000011
0 38 U A 0.000011
0 38 U C 0.000011
0 38 U U 0.003850
0 38 U G 0.000011
0 38 U - 0.000011
0 38 G A 0.000007
0 38 G C -0.000005
0 38 G U -0.004319
0 38 G G 0.000012
0 38 G - 0.000011
0 38 - A -0.000003
0 38 - C -0.000009
0 38 - U -0.117045
0 38 - G 0.003029
0 38 - - 0.000004
0 39 A A 0.000011
0 39 A C 0.000011
0 39 A U 0.000011
0 39 A G 0.000011
0 39 A - 0.007137
0 39 C A 0.000011
0 39 C C 0.000011
0 39 C U 0.000011
0 39 C G 0.000011
0 39 C - 0.005654
0 39 U A 0.000011
0 39 U C 0.000011
0 39 U U 0.000011
0 39 U G 0.000011
0 39 U - 0.003419
0 39 G A -0.000000
0 39 G C 0.000002
0 39 G U 0.000555
0 39 G G 0.000010
0 39 G - -0.009445
0 39 - A 0.000009
0 39 - C 0.001324
0 39 - U -0.000000
0 39 - G 0.000213
0 39 - - -0.072585
0 40 A A 0.000010
0 40 A C 0.000010
0 40 A U 0.000010
0 40 A G 0.000010
0 40 A - 0.006309
0 40 C A 0.000010
0 40 C C 0.000010
0 40 C U 0.000010
0 40 C G 0.000010
0 40 C - 0.000221
0 40 U A 0.000010
0 40 U C 0.000010
0 40 U U 0.000010
0 40 U G 0.000010
0 40 U - 0.003173
0 40 G A 0.000558
0 40 G C 0.000010
0 40 G U -0.000006
0 40 G G -0.000003
0 40 G - -0.015539
0 40 - A 0.000009
0 40 - C 0.000004
0 40 - U -0.000002
0 40 - G 0.000012
0 40 - - -0.039069
0 41 A A -0.000001
0 41 A C -0.000001
0 41 A U -0.000001
0 41 A G -0.000001
0 41 A - 0.008272
0 41 C A -0.000001
0 41 C C -0.000001
0 41 C U -0.000001
0 41 C G -0.000001
0 41 C - 0.007490
0 41 U A -0.000001
0 41 U C -0.000001
0 41 U U -0.000001
0 41 U G -0.000001
0 41 U - 0.003715
0 41 G A 0.000009
0 41 G C -0.000001
0 41 G U -0.000006
0 41 G G -0.000001
0 41 G - -0.004300
0 41 - A 0.000917
0 41 - C -0.000001
0 41 - U 0.001045
0 41 - G 0.000010
0 41 - - -0.099572
0 42 A A -0.000005
0 42 A C 0.006391
0 42 A U 0.000008
0 42 A G 0.000008
0 42 A - 0.000009
0 42 C A 0.000009
0 42 C C 0.000143
0 42 C U -0.000001
0 42 C G 0.000009
0 42 C - 0.000009
0 42 U A 0.000009
0 42 U C 0.002777
0 42 U U -0.000008
0 42 U G 0.000009
0 42 U - 0.000009
0 42 G A -0.000326
0 42 G C -0.003346
0 42 G U 0.001045
0 42 G G 0.000983
0 42 G - 0.000008
0 42 - A 0.020176
0 42 - C -0.014693
0 42 - U -0.113912
0 42 - G 0.005923
0 42 - - 0.007500
0 43 A A -0.000005
0 43 A C -0.000005
0 43 A U -0.000005
0 43 A G -0.000005
0 43 A - 0.007858
0 43 C A -0.000005
0 43 C C -0.000005
0 43 C U -0.000005
0 43 C G -0.000005
0 43 C - 0.006697
0 43 U A -0.000005
0 43 U C -0.000005
0 43 U U -0.000005
0 43 U G -0.000005
0 43 U - 0.003575
0 43 G A -0.000005
0 43 G C -0.000005
0 43 G U -0.000002
0 43 G G 0.000006
0 43 G - -0.006484
0 43 - A -0.000005
0 43 - C -0.000005
0 43 - U 0.000009
0 43 - G 0.000011
0 43 - - -0.082818
0 44 A A 0.000002
0 44 A C 0.000002
0 44 A U 0.000002
0 44 A G 0.000002
0 44 A - 0.006817
0 44 C A 0.000002
0 44 C C 0.000002
0 44 C U 0.000002
0 44 C G 0.000002
0 44 C - 0.000588
0 44 U A 0.000002
0 44 U C 0.000002
0 44 U U 0.000002
0 44 U G 0.000002
0 44 U - 0.003265
0 44 G A 0.000002
0 44 G C 0.001681
0 44 G U 0.000004
0 44 G G 0.000003
0 44 G - -0.013801
0 44 - A 0.001565
0 44 - C 0.000011
0 44 - U 0.000007
0 44 - G 0.001794
0 44 - - -0.055956
0 45 A A 0.000010
0 45 A C 0.000010
0 45 A U 0.000010
0 45 A G 0.000010
0 45 A - 0.007332
0 45 C A 0.000010
0 45 C C 0.000010
0 45 C U 0.000010
0 45 C G 0.000010
0 45 C - 0.001393
0 45 U A 0.000010
0 45 U C 0.000010
0 45 U U 0.000010
0 45 U G 0.000010
0 45 U - 0.003444
0 45 G A 0.000010
0 45 G C -0.000001
0 45 G U 0.000010
0 45 G G 0.000002
0 45 G - -0.005210
0 45 - A -0.000006
0 45 - C 0.000007
0 45 - U -0.000005
0 45 - G 0.000012
0 45 - - -0.069110
0 46 A A 0.005832
0 46 A C 0.000124
0 46 A U -0.000006
0 46 A G 0.000011
0 46 A - 0.000011
0 46 C A 0.000792
0 46 C C 0.000011
0 46 C U 0.000011
0 46 C G 0.000011
0 46 C - 0.000011
0 46 U A 0.003322
0 46 U C 0.000011
0 46 U U 0.000011
0 46 U G 0.000011
0 46 U - 0.000011
0 46 G A -0.006279
0 46 G C -0.000003
0 46 G U 0.000007
0 46 G G -0.000009
0 46 G - -0.000003
0 46 - A -0.061924
0 46 - C 0.000429
0 46 - U -0.000004
0 46 - G 0.000667
0 46 - - 0.000482
0 47 A A 0.000014
0 47 A C -0.000001
0 47 A U 0.015864
0 47 A G -0.000001
0 47 A - -0.000001
0 47 C A -0.000001
0 47 C C -0.000001
0 47 C U 0.046189
0 47 C G -0.000001
0 47 C - -0.000001
0 47 U A -0.000001
0 47 U C -0.000001
0 47 U U 0.012043
0 47 U G -0.000001
0 47 U - -0.000001
0 47 G A 0.000009
0 47 G C 0.000045
0 47 G U -0.000544
0 47 G G 0.000013
0 47 G - -0.000001
0 47 - A 0.005671
0 47 - C 0.009638
0 47 - U -0.253675
0 47 - G 0.002885
0 47 - - 0.010742
0 48 A A 0.009386
0 48 A C 0.000000
0 48 A U 0.000000
0 48 A G -0.000005
0 48 A - 0.000013
0 48 C A 0.010523
0 48 C C 0.000000
0 48 C U 0.000000
0 48 C G 0.000000
0 48 C - 0.000000
0 48 U A 0.003886
0 48 U C 0.000000
0 48 U U 0.000000
0 48 U G 0.000000
0 48 U - 0.000000
0 48 G A -0.118113
0 48 G C 0.000006
0 48 G U -0.000005
0 48 G G 0.000010
0 48 G - 0.000003
0 48 - A -0.002819
0 48 - C 0.000001
0 48 - U 0.000493
0 48 - G 0.000712
0 48 - - 0.002301
0 49 A A -0.000009
0 49 A C 0.004897
0 49 A U -0.000009
0 49 A G -0.000009
0 49 A - -0.000009
0 49 C A -0.000009
0 49 C C 0.000005
0 49 C U -0.000009
0 49 C G -0.000009
0 49 C - -0.000009
0 49 U A -0.000009
0 49 U C 0.003166
0 49 U U 0.000010
0 49 U G -0.000009
0 49 U - -0.000009
0 49 G A -0.000005
0 49 G C -0.006111
0 49 G U -0.000008
0 49 G G -0.000001
0 49 G - -0.000004
0 49 - A 0.000008
0 49 - C -0.026416
0 49 - U 0.001664
0 49 - G 0.002289
0 49 - - 0.000390
0 50 A A -0.000008
0 50 A C 0.000006
0 50 A U -0.000008
0 50 A G 0.005096
0 50 A - -0.000008
0 50 C A -0.000008
0 50 C C -0.000008
0 50 C U -0.000008
0 50 C G 0.000003
0 50 C - -0.000008
0 50 U A -0.000008
0 50 U C -0.000008
0 50 U U -0.000008
0 50 U G 0.002914
0 50 U - -0.000001
0 50 G A -0.000008
0 50 G C -0.000008
0 50 G U -0.000008
0 50 G G -0.012335
0 50 G - -0.000008
0 50 - A 0.000004
0 50 - C 0.000402
0 50 - U 0.000004
0 50 - G -0.014688
0 50 - - 0.000203
0 51 A A 0.000009
0 51 A C 0.000009
0 51 A U 0.000009
0 51 A G 0.006749
0 51 A - 0.000009
0 51 C A 0.000009
0 51 C C 0.000009
0 51 C U 0.000009
0 51 C G 0.000537
0 51 C - 0.000009
0 51 U A 0.000009
0 51 U C 0.000009
0 51 U U 0.000009
0 51 U G 0.003311
0 51 U - 0.000009
0 51 G A 0.000000
0 51 G C 0.000002
0 51 G U -0.000001
0 51 G G -0.055691
0 51 G - -0.000002
0 51 - A -0.000003
0 51 - C -0.000007
0 51 - U 0.001438
0 51 - G -0.012236
0 51 - - 0.000200
0 52 A A 0.000010
0 52 A C 0.006099
0 52 A U 0.000010
0 52 A G 0.000010
0 52 A - 0.000010
0 52 C A 0.000010
0 52 C C 0.000002
0 52 C U 0.000010
0 52 C G 0.000009
0 52 C - 0.000010
0 52 U A 0.000010
0 52 U C 0.003137
0 52 U U 0.000010
0 52 U G 0.000010
0 52 U - 0.000010
0 52 G A -0.000004
0 52 G C -0.041127
0 52 G U 0.000007
0 52 G G 0.000010
0 52 G - 0.000003
0 52 - A -0.000002
0 52 - C -0.009464
0 52 - U -0.000007
0 52 - G 0.000005
0 52 - - 0.000254
0 53 A A 0.007662
0 53 A C -0.000004
0 53 A U -0.000007
0 53 A G -0.000006
0 53 A - 0.000010
0 53 C A 0.000957
0 53 C C 0.000001
0 53 C U 0.000001
0 53 C G 0.000001
0 53 C - 0.000001
0 53 U A 0.003443
0 53 U C 0.000001
0 53 U U 0.000001
0 53 U G 0.000001
0 53 U - 0.000001
0 53 G A -0.004677
0 53 G C 0.000007
0 53 G U 0.001582
0 53 G G -0.000011
0 53 G - 0.000003
0 53 - A -0.080751
0 53 - C -0.000003
0 53 - U 0.000235
0 53 - G 0.003389
0 53 - - 0.003147
0 54 A A 0.007324
0 54 A C -0.000006
0 54 A U 0.000008
0 54 A G -0.000006
0 54 A - -0.000006
0 54 C A 0.000682
0 54 C C -0.000006
0 54 C U -0.000006
0 54 C G -0.000006
0 54 C - -0.000006
0 54 U A 0.003343
0 54 U C -0.000006
0 54 U U -0.000006
0 54 U G -0.000006
0 54 U - -0.000006
0 54 G A -0.008822
0 54 G C 0.000093
0 54 G U -0.000006
0 54 G G -0.000007
0 54 G - -0.000005
0 54 - A -0.063030
0 54 - C -0.000007
0 54 - U 0.001604
0 54 - G -0.000007
0 54 - - 0.000006
0 55 A A 0.006851
0 55 A C 0.000005
0 55 A U 0.000005
0 55 A G 0.000005
0 55 A - 0.000005
0 55 C A 0.000579
0 55 C C 0.000005
0 55 C U 0.000005
0 55 C G 0.000005
0 55 C - 0.000005
0 55 U A 0.003278
0 55 U C 0.000005
0 55 U U 0.000005
0 55 U G -0.000005
0 55 U - 0.000005
0 55 G A -0.011419
0 55 G C -0.000003
0 55 G U 0.000005
0 55 G G -0.000006
0 55 G - -0.000003
0 55 - A -0.053223
0 55 - C 0.000001
0 55 - U -0.000000
0 55 - G -0.000003
0 55 - - -0.000003
0 56 A A 0.008633
0 56 A C 0.000006
0 56 A U 0.000006
0 56 A G 0.000006
0 56 A - 0.000006
0 56 C A 0.010064
0 56 C C 0.000006
0 56 C U 0.000006
0 56 C G 0.000006
0 56 C - 0.000006
0 56 U A 0.002494
0 56 U C 0.000006
0 56 U U 0.000012
0 56 U G 0.000006
0 56 U - 0.000006
0 56 G A -0.003415
0 56 G C 0.000004
0 56 G U 0.000001
0 56 G G 0.000005
0 56 G - -0.000002
0 56 - A -0.111258
0 56 - C 0.004252
0 56 - U -0.000006
0 56 - G -0.000001
0 56 - - 0.000001
0 57 A A 0.006113
0 57 A C -0.000004
0 57 A U -0.000004
0 57 A G -0.000004
0 57 A - -0.000004
0 57 C A 0.000040
0 57 C C -0.000004
0 57 C U -0.000004
0 57 C G -0.000004
0 57 C - -0.000004
0 57 U A 0.003118
0 57 U C -0.000004
0 57 U U -0.000004
0 57 U G -0.000004
0 57 U - 0.000007
0 57 G A -0.028474
0 57 G C -0.000003
0 57 G U 0.000010
0 57 G G -0.000004
0 57 G - -0.000006
0 57 - A -0.022560
0 57 - C 0.000005
0 57 - U 0.000009
0 57 - G 0.000443
0 57 - - 0.000147
0 58 A A 0.003714
0 58 A C -0.000006
0 58 A U 0.000011
0 58 A G -0.000003
0 58 A - -0.000005
0 58 C A 0.001142
0 58 C C -0.000006
0 58 C U 0.000010
0 58 C G 0.000001
0 58 C - -0.000006
0 58 U A 0.002973
0 58 U C 0.000008
0 58 U U 0.000426
0 58 U G 0.000010
0 58 U - -0.000004
0 58 G A -0.064587
0 58 G C 0.000005
0 58 G U 0.000414
0 58 G G 0.001316
0 58 G - -0.000010
0 58 - A -0.005413
0 58 - C 0.006344
0 58 - U -0.020372
0 58 - G 0.001571
0 58 - - 0.003516
0 59 A A 0.000009
0 59 A C 0.000009
0 59 A U 0.000009
0 59 A G 0.006359
0 59 A - 0.000009
0 59 C A 0.000009
0 59 C C 0.000009
0 59 C U 0.000009
0 59 C G 0.000284
0 59 C - 0.000009
0 59 U A 0.000009
0 59 U C 0.000009
0 59 U U 0.000003
0 59 U G 0.003178
0 59 U - 0.000009
0 59 G A 0.000009
0 59 G C 0.001004
0 59 G U -0.000009
0 59 G G -0.058333
0 59 G - 0.000002
0 59 - A -0.000001
0 59 - C -0.000011
0 59 - U 0.000000
0 59 - G 0.000207
0 59 - - 0.000011
0 60 A A -0.000005
0 60 A C -0.000005
0 60 A U 0.006084
0 60 A G -0.000005
0 60 A - -0.000005
0 60 C A -0.000005
0 60 C C -0.000005
0 60 C U -0.000001
0 60 C G -0.000005
0 60 C - -0.000005
0 60 U A -0.000005
0 60 U C -0.000005
0 60 U U 0.002120
0 60 U G 0.000009
0 60 U - -0.000003
0 60 G A 0.000570
0 60 G C -0.000006
0 60 G U -0.045218
0 60 G G 0.000010
0 60 G - -0.000004
0 60 - A 0.001815
0 60 - C 0.001018
0 60 - U -0.005932
0 60 - G 0.000007
0 60 - - 0.001117
0 61 A A -0.000006
0 61 A C 0.007564
0 61 A U -0.000006
0 61 A G -0.000006
0 61 A - -0.000006
0 61 C A -0.000006
0 61 C C 0.003998
0 61 C U -0.000006
0 61 C G -0.000006
0 61 C - -0.000006
0 61 U A 0.000007
0 61 U C 0.003606
0 61 U U 0.000008
0 61 U G -0.000006
0 61 U - -0.000006
0 61 G A -0.000006
0 61 G C -0.084190
0 61 G U 0.000451
0 61 G G 0.000621
0 61 G - -0.000001
0 61 - A -0.000010
0 61 - C -0.008843
0 61 - U -0.001124
0 61 - G 0.000004
0 61 - - 0.012737
0 62 A A -0.000004
0 62 A C -0.000004
0 62 A U 0.006533
0 62 A G -0.000004
0 62 A - -0.000004
0 62 C A -0.000004
0 62 C C -0.000004
0 62 C U 0.000429
0 62 C G -0.000004
0 62 C - -0.000004
0 62 U A 0.000005
0 62 U C 0.000010
0 62 U U 0.003398
0 62 U G -0.000004
0 62 U - -0.000004
0 62 G A 0.000392
0 62 G C -0.000007
0 62 G U -0.060818
0 62 G G 0.000010
0 62 G - 0.000009
0 62 - A -0.012032
0 62 - C -0.000170
0 62 - U -0.002632
0 62 - G 0.003408
0 62 - - 0.009874
0 63 A A 0.004340
0 63 A C 0.000002
0 63 A U 0.000002
0 63 A G 0.000002
0 63 A - 0.000003
0 63 C A 0.000010
0 63 C C 0.000002
0 63 C U 0.000002
0 63 C G 0.000002
0 63 C - 0.000002
0 63 U A 0.003024
0 63 U C 0.000002
0 63 U U -0.000002
0 63 U G 0.000002
0 63 U - 0.000002
0 63 G A -0.038207
0 63 G C -0.000008
0 63 G U 0.000010
0 63 G G 0.000998
0 63 G - -0.000006
0 63 - A -0.000916
0 63 - C 0.000740
0 63 - U -0.000234
0 63 - G -0.000030
0 63 - - -0.000001
1 1 A A -0.010381
1 1 C C 0.012133
1 1 U U -0.005012
1 1 G G 0.000853
1 1 - - 0.002046
1 2 A A 0.000463
1 2 A C -0.000004
1 2 A U -0.236721
1 2 A G 0.001000
1 2 A - 0.034149
1 2 C A 0.000004
1 2 C C 0.000000
1 2 C U 0.059216
1 2 C G 0.000009
1 2 C - 0.000000
1 2 U A -0.377152
1 2 U C 0.000813
1 2 U U 0.426915
1 2 U G -0.000006
1 2 U - 0.000014
1 2 G A -0.000002
1 2 G C 0.000000
1 2 G U 0.078479
1 2 G G -0.000005
1 2 G - 0.000014
1 2 - A 0.075776
1 2 - C 0.012507
1 2 - U -0.191667
1 2 - G 0.011986
1 2 - - 0.000249
1 3 A A -0.115364
1 3 A C 0.000574
1 3 A U -0.000000
1 3 A G 0.001511
1 3 A - -0.000001
1 3 C A 0.051826
1 3 C C 0.000006
1 3 C U -0.000003
1 3 C G 0.000002
1 3 C - 0.000006
1 3 U A 0.368158
1 3 U C -0.000002
1 3 U U 0.000013
1 3 U G -0.372873
1 3 U - 0.000006
1 3 G A 0.071250
1 3 G C 0.000006
1 3 G U -0.000000
1 3 G G -0.000000
1 3 G - 0.000006
1 3 - A -0.308161
1 3 - C 0.012663
1 3 - U 0.001417
1 3 - G 0.185196
1 3 - - -0.000007
1 4 A A 0.075495
1 4 A C 0.000002
1 4 A U -0.000001
1 4 A G -0.439365
1 4 A - 0.001144
1 4 C A 0.000686
1 4 C C -0.000003
1 4 C U 0.000010