# NB_STEPS 3000
# UP_FREQ 1000
# TEMP 1.000000
# LAMBDA 0.010000
# ID_THRES 1.000000
# ALPHA 1.435215
0 0 A A -0.002768
0 0 C C 0.003859
0 0 U U 0.000338
0 0 G G -0.001628
0 0 - - -0.000087
0 1 A A 0.000010
0 1 A C -0.000173
0 1 A U 0.000010
0 1 A G 0.000011
0 1 A - 0.000004
0 1 C A 0.000004
0 1 C C 0.024393
0 1 C U 0.000001
0 1 C G 0.000004
0 1 C - 0.000004
0 1 U A 0.000004
0 1 U C 0.000786
0 1 U U 0.000012
0 1 U G 0.000004
0 1 U - 0.000004
0 1 G A 0.011637
0 1 G C -0.149969
0 1 G U 0.002308
0 1 G G 0.063698
0 1 G - 0.003401
0 1 - A 0.000011
0 1 - C 0.021506
0 1 - U -0.000003
0 1 - G 0.000004
0 1 - - -0.049237
0 2 A A -0.000006
0 2 A C -0.001787
0 2 A U -0.000005
0 2 A G -0.000006
0 2 A - -0.000002
0 2 C A 0.000002
0 2 C C 0.044818
0 2 C U -0.000010
0 2 C G -0.000001
0 2 C - -0.000002
0 2 U A 0.000159
0 2 U C -0.000001
0 2 U U 0.000005
0 2 U G -0.000000
0 2 U - -0.000002
0 2 G A -0.003926
0 2 G C -0.001486
0 2 G U -0.001006
0 2 G G 0.003391
0 2 G - 0.025152
0 2 - A -0.000005
0 2 - C 0.003300
0 2 - U -0.000006
0 2 - G 0.000006
0 2 - - -0.107061
0 3 A A -0.000007
0 3 A C -0.001588
0 3 A U 0.000005
0 3 A G -0.000003
0 3 A - -0.000003
0 3 C A 0.000000
0 3 C C 0.002702
0 3 C U 0.000000
0 3 C G 0.000006
0 3 C - -0.000002
0 3 U A 0.000004
0 3 U C 0.000032
0 3 U U 0.000000
0 3 U G -0.000007
0 3 U - -0.000001
0 3 G A -0.006605
0 3 G C -0.002911
0 3 G U 0.002959
0 3 G G -0.003755
0 3 G - 0.040958
0 3 - A 0.000666
0 3 - C -0.000005
0 3 - U 0.000002
0 3 - G -0.000006
0 3 - - -0.037838
0 4 A A -0.000005
0 4 A C 0.000878
0 4 A U -0.000007
0 4 A G -0.000085
0 4 A - -0.000006
0 4 C A -0.000002
0 4 C C 0.000001
0 4 C U -0.000000
0 4 C G 0.006889
0 4 C - -0.000006
0 4 U A -0.000005
0 4 U C 0.000154
0 4 U U -0.000006
0 4 U G -0.000003
0 4 U - 0.000002
0 4 G A 0.067674
0 4 G C 0.002893
0 4 G U -0.003670
0 4 G G -0.133584
0 4 G - 0.020383
0 4 - A 0.000006
0 4 - C 0.000726
0 4 - U -0.000006
0 4 - G -0.000008
0 4 - - 0.000000
0 5 A A 0.000732
0 5 A C 0.000006
0 5 A U -0.000001
0 5 A G -0.000009
0 5 A - -0.000001
0 5 C A 0.000006
0 5 C C -0.000001
0 5 C U -0.000005
0 5 C G 0.002758
0 5 C - -0.000007
0 5 U A -0.000001
0 5 U C 0.000009
0 5 U U -0.000001
0 5 U G 0.001268
0 5 U - 0.000006
0 5 G A 0.000760
0 5 G C 0.014601
0 5 G U 0.001266
0 5 G G -0.087920
0 5 G - 0.014709
0 5 - A -0.000004
0 5 - C 0.000001
0 5 - U -0.000001
0 5 - G 0.000392
0 5 - - -0.000008
0 6 A A -0.000477
0 6 A C 0.000783
0 6 A U -0.000003
0 6 A G 0.000006
0 6 A - -0.000002
0 6 C A 0.002738
0 6 C C 0.000000
0 6 C U 0.000008
0 6 C G 0.000005
0 6 C - -0.000002
0 6 U A 0.000792
0 6 U C 0.000004
0 6 U U -0.000002
0 6 U G 0.000010
0 6 U - -0.000002
0 6 G A -0.057640
0 6 G C 0.013684
0 6 G U -0.002106
0 6 G G -0.000130
0 6 G - 0.011781
0 6 - A 0.000423
0 6 - C -0.000001
0 6 - U -0.000002
0 6 - G -0.000001
0 6 - - -0.000009
0 7 A A 0.000004
0 7 A C 0.000006
0 7 A U -0.000178
0 7 A G -0.000000
0 7 A - 0.000004
0 7 C A 0.000011
0 7 C C 0.000006
0 7 C U 0.006730
0 7 C G 0.000009
0 7 C - 0.000004
0 7 U A 0.000010
0 7 U C 0.000218
0 7 U U 0.001033
0 7 U G 0.000004
0 7 U - 0.000012
0 7 G A 0.038186
0 7 G C -0.003550
0 7 G U -0.149909
0 7 G G 0.006542
0 7 G - 0.017423
0 7 - A 0.000010
0 7 - C 0.000010
0 7 - U 0.000657
0 7 - G 0.000004
0 7 - - -0.000005
0 8 A A -0.000001
0 8 A C 0.000009
0 8 A U 0.000013
0 8 A G -0.000065
0 8 A - 0.000013
0 8 C A 0.000013
0 8 C C 0.000013
0 8 C U 0.000009
0 8 C G 0.009969
0 8 C - 0.000007
0 8 U A 0.000013
0 8 U C 0.000013
0 8 U U 0.000013
0 8 U G 0.001617
0 8 U - 0.000013
0 8 G A -0.000000
0 8 G C 0.004278
0 8 G U 0.002438
0 8 G G -0.126005
0 8 G - 0.003962
0 8 - A -0.000001
0 8 - C 0.000013
0 8 - U -0.000001
0 8 - G 0.000751
0 8 - - 0.000006
0 9 A A -0.000037
0 9 A C 0.000001
0 9 A U 0.000009
0 9 A G 0.000001
0 9 A - 0.000001
0 9 C A 0.035541
0 9 C C 0.000001
0 9 C U 0.000011
0 9 C G 0.000001
0 9 C - 0.000001
0 9 U A 0.002153
0 9 U C 0.000001
0 9 U U 0.000001
0 9 U G 0.000001
0 9 U - 0.000001
0 9 G A -0.188560
0 9 G C 0.009429
0 9 G U 0.001813
0 9 G G 0.012288
0 9 G - 0.001789
0 9 - A 0.001536
0 9 - C 0.000000
0 9 - U 0.000001
0 9 - G 0.000001
0 9 - - -0.000006
0 10 A A 0.000006
0 10 A C -0.000002
0 10 A U -0.000002
0 10 A G 0.000837
0 10 A - 0.000007
0 10 C A 0.001404
0 10 C C -0.000004
0 10 C U 0.001752
0 10 C G 0.000004
0 10 C - 0.000005
0 10 U A 0.000002
0 10 U C 0.000053
0 10 U U 0.000037
0 10 U G -0.000003
0 10 U - 0.000005
0 10 G A 0.000884
0 10 G C -0.150423
0 10 G U 0.006179
0 10 G G 0.000280
0 10 G - 0.079480
0 10 - A -0.000001
0 10 - C -0.000004
0 10 - U -0.000003
0 10 - G 0.000612
0 10 - - -0.000002
0 11 A A -0.000002
0 11 A C -0.001601
0 11 A U -0.000000
0 11 A G -0.000002
0 11 A - -0.000002
0 11 C A -0.000002
0 11 C C 0.004155
0 11 C U -0.000009
0 11 C G 0.000001
0 11 C - -0.000002
0 11 U A -0.000002
0 11 U C 0.000385
0 11 U U -0.000002
0 11 U G 0.000007
0 11 U - -0.000002
0 11 G A -0.000128
0 11 G C -0.003348
0 11 G U -0.035601
0 11 G G 0.019350
0 11 G - 0.008911
0 11 - A -0.000000
0 11 - C 0.000256
0 11 - U 0.000008
0 11 - G -0.000002
0 11 - - -0.000009
0 12 A A -0.000006
0 12 A C -0.000845
0 12 A U 0.000795
0 12 A G 0.000006
0 12 A - 0.000000
0 12 C A -0.000001
0 12 C C 0.001727
0 12 C U 0.002204
0 12 C G 0.000005
0 12 C - 0.000000
0 12 U A -0.000009
0 12 U C 0.000005
0 12 U U 0.000126
0 12 U G 0.000000
0 12 U - 0.000000
0 12 G A -0.001038
0 12 G C 0.002907
0 12 G U -0.044992
0 12 G G 0.003621
0 12 G - 0.000678
0 12 - A 0.000007
0 12 - C -0.000003
0 12 - U 0.000655
0 12 - G -0.000010
0 12 - - -0.000007
0 13 A A 0.000003
0 13 A C 0.000004
0 13 A U -0.000145
0 13 A G -0.000008
0 13 A - -0.000001
0 13 C A -0.000003
0 13 C C 0.000005
0 13 C U 0.002684
0 13 C G -0.000006
0 13 C - -0.000001
0 13 U A -0.000001
0 13 U C -0.000008
0 13 U U -0.000009
0 13 U G 0.000005
0 13 U - -0.000001
0 13 G A -0.005291
0 13 G C 0.005288
0 13 G U -0.003351
0 13 G G -0.001748
0 13 G - 0.000785
0 13 - A -0.000001
0 13 - C 0.000585
0 13 - U -0.000009
0 13 - G -0.000003
0 13 - - -0.000007
0 14 A A -0.000006
0 14 A C -0.001813
0 14 A U 0.000006
0 14 A G 0.000008
0 14 A - -0.000004
0 14 C A -0.000006
0 14 C C 0.002700
0 14 C U -0.000003
0 14 C G 0.000007
0 14 C - -0.000004
0 14 U A -0.000001
0 14 U C -0.000012
0 14 U U 0.000002
0 14 U G 0.000006
0 14 U - -0.000004
0 14 G A -0.000367
0 14 G C 0.047291
0 14 G U -0.050930
0 14 G G -0.001639
0 14 G - 0.004956
0 14 - A 0.000581
0 14 - C -0.000010
0 14 - U -0.000004
0 14 - G -0.000002
0 14 - - -0.000012
0 15 A A -0.002975
0 15 A C -0.000004
0 15 A U -0.000004
0 15 A G 0.000766
0 15 A - 0.000008
0 15 C A 0.001672
0 15 C C -0.000002
0 15 C U -0.000007
0 15 C G 0.002773
0 15 C - 0.000008
0 15 U A -0.000009
0 15 U C 0.000005
0 15 U U 0.000008
0 15 U G 0.000604
0 15 U - 0.000008
0 15 G A -0.001837
0 15 G C 0.000470
0 15 G U -0.003502
0 15 G G -0.000072
0 15 G - 0.002390
0 15 - A -0.000012
0 15 - C -0.000001
0 15 - U 0.000008
0 15 - G 0.000369
0 15 - - 0.000001
0 16 A A 0.000006
0 16 A C -0.000009
0 16 A U 0.000008
0 16 A G -0.002102
0 16 A - 0.000006
0 16 C A 0.000006
0 16 C C -0.000009
0 16 C U 0.000001
0 16 C G 0.002687
0 16 C - 0.000006
0 16 U A 0.000004
0 16 U C -0.000004
0 16 U U 0.000006
0 16 U G -0.000008
0 16 U - 0.000006
0 16 G A -0.011143
0 16 G C -0.005204
0 16 G U 0.000483
0 16 G G 0.025217
0 16 G - 0.002045
0 16 - A 0.000004
0 16 - C 0.000565
0 16 - U 0.000006
0 16 - G -0.000019
0 16 - - -0.000001
0 17 A A 0.000010
0 17 A C 0.000005
0 17 A U -0.002480
0 17 A G 0.000010
0 17 A - 0.000010
0 17 C A 0.000010
0 17 C C 0.000010
0 17 C U 0.004220
0 17 C G 0.000000
0 17 C - 0.000010
0 17 U A -0.000004
0 17 U C 0.000010
0 17 U U 0.000403
0 17 U G 0.000010
0 17 U - 0.000010
0 17 G A 0.002804
0 17 G C -0.019218
0 17 G U -0.005212
0 17 G G -0.000009
0 17 G - 0.009023
0 17 - A 0.000010
0 17 - C 0.000010
0 17 - U 0.000254
0 17 - G 0.000010
0 17 - - 0.000003
0 18 A A -0.000004
0 18 A C 0.000010
0 18 A U -0.000004
0 18 A G -0.000068
0 18 A - 0.000010
0 18 C A 0.000010
0 18 C C 0.000010
0 18 C U 0.000010
0 18 C G 0.006591
0 18 C - 0.000010
0 18 U A 0.000010
0 18 U C 0.000281
0 18 U U 0.000010
0 18 U G -0.000009
0 18 U - 0.000010
0 18 G A 0.000229
0 18 G C 0.000000
0 18 G U 0.000613
0 18 G G -0.074314
0 18 G - -0.000007
0 18 - A 0.000010
0 18 - C 0.000010
0 18 - U 0.000010
0 18 - G 0.000267
0 18 - - -0.000005
0 19 A A -0.000003
0 19 A C 0.000006
0 19 A U 0.000006
0 19 A G -0.002234
0 19 A - 0.000006
0 19 C A 0.000006
0 19 C C 0.000006
0 19 C U 0.000006
0 19 C G 0.004536
0 19 C - 0.000002
0 19 U A 0.000006
0 19 U C 0.000006
0 19 U U 0.000006
0 19 U G 0.000467
0 19 U - 0.000006
0 19 G A 0.000010
0 19 G C -0.000009
0 19 G U 0.000004
0 19 G G -0.021881
0 19 G - 0.000005
0 19 - A 0.000006
0 19 - C 0.000006
0 19 - U 0.000006
0 19 - G 0.000142
0 19 - - -0.000007
0 20 A A 0.000005
0 20 A C 0.000010
0 20 A U -0.002780
0 20 A G 0.000010
0 20 A - 0.000010
0 20 C A 0.000007
0 20 C C 0.000007
0 20 C U 0.003891
0 20 C G 0.000010
0 20 C - -0.000004
0 20 U A 0.000010
0 20 U C 0.000010
0 20 U U 0.000335
0 20 U G 0.000010
0 20 U - 0.000010
0 20 G A 0.000918
0 20 G C -0.000148
0 20 G U -0.005541
0 20 G G 0.001706
0 20 G - 0.001291
0 20 - A 0.000010
0 20 - C -0.000003
0 20 - U 0.000052
0 20 - G 0.000010
0 20 - - -0.000003
0 21 A A -0.000002
0 21 A C -0.011269
0 21 A U -0.000010
0 21 A G -0.000011
0 21 A - -0.000006
0 21 C A -0.000006
0 21 C C 0.002664
0 21 C U 0.000001
0 21 C G -0.000003
0 21 C - -0.000006
0 21 U A -0.000006
0 21 U C -0.000012
0 21 U U -0.000003
0 21 U G 0.000001
0 21 U - -0.000006
0 21 G A -0.001948
0 21 G C 0.043107
0 21 G U -0.006765
0 21 G G -0.003636
0 21 G - 0.000000
0 21 - A -0.000006
0 21 - C -0.000107
0 21 - U -0.000009
0 21 - G 0.000560
0 21 - - -0.000009
0 22 A A 0.000009
0 22 A C 0.000778
0 22 A U -0.024532
0 22 A G -0.000003
0 22 A - -0.000009
0 22 C A 0.000009
0 22 C C 0.003319
0 22 C U 0.001697
0 22 C G 0.000008
0 22 C - -0.000003
0 22 U A -0.000003
0 22 U C -0.000006
0 22 U U -0.000001
0 22 U G -0.000001
0 22 U - -0.000003
0 22 G A -0.000150
0 22 G C -0.000455
0 22 G U -0.000078
0 22 G G 0.000838
0 22 G - 0.001140
0 22 - A -0.000003
0 22 - C 0.000325
0 22 - U -0.000005
0 22 - G -0.000001
0 22 - - 0.000002
0 23 A A 0.000011
0 23 A C 0.000009
0 23 A U 0.000009
0 23 A G -0.001209
0 23 A - -0.000007
0 23 C A 0.000000
0 23 C C -0.000008
0 23 C U -0.000005
0 23 C G 0.002849
0 23 C - -0.000007
0 23 U A -0.000007
0 23 U C 0.000088
0 23 U U -0.000002
0 23 U G 0.000003
0 23 U - -0.000007
0 23 G A 0.000503
0 23 G C 0.001045
0 23 G U -0.043186
0 23 G G 0.012585
0 23 G - -0.000001
0 23 - A 0.000008
0 23 - C 0.000008
0 23 - U 0.000636
0 23 - G -0.000008
0 23 - - -0.000000
0 24 A A 0.000008
0 24 A C -0.000001
0 24 A U 0.000006
0 24 A G -0.004207
0 24 A - -0.000005
0 24 C A -0.000006
0 24 C C 0.000009
0 24 C U -0.000008
0 24 C G 0.002710
0 24 C - -0.000006
0 24 U A -0.000006
0 24 U C 0.000003
0 24 U U -0.000006
0 24 U G -0.000009
0 24 U - -0.000006
0 24 G A 0.001974
0 24 G C -0.002106
0 24 G U -0.013430
0 24 G G 0.003529
0 24 G - 0.001330
0 24 - A -0.000005
0 24 - C -0.000005
0 24 - U -0.000007
0 24 - G 0.000315
0 24 - - 0.000000
0 25 A A -0.000009
0 25 A C -0.000000
0 25 A U 0.000006
0 25 A G -0.004116
0 25 A - 0.000010
0 25 C A -0.000005
0 25 C C 0.000001
0 25 C U 0.000010
0 25 C G 0.002705
0 25 C - 0.000010
0 25 U A -0.000004
0 25 U C -0.000009
0 25 U U 0.000007
0 25 U G 0.000637
0 25 U - 0.000010
0 25 G A -0.000125
0 25 G C 0.003871
0 25 G U -0.002448
0 25 G G -0.006846
0 25 G - 0.001010
0 25 - A -0.000001
0 25 - C -0.000007
0 25 - U 0.000010
0 25 - G 0.000243
0 25 - - 0.000010
0 26 A A 0.000001
0 26 A C 0.000007
0 26 A U 0.000002
0 26 A G -0.003259
0 26 A - 0.000003
0 26 C A 0.000003
0 26 C C -0.000006
0 26 C U 0.000003
0 26 C G 0.003409
0 26 C - 0.000003
0 26 U A 0.000003
0 26 U C 0.000003
0 26 U U 0.000003
0 26 U G 0.000230
0 26 U - 0.000003
0 26 G A -0.012829
0 26 G C 0.034795
0 26 G U -0.000221
0 26 G G -0.002849
0 26 G - 0.000006
0 26 - A 0.000005
0 26 - C -0.000010
0 26 - U 0.000001
0 26 - G -0.000027
0 26 - - 0.000003
0 27 A A -0.000002
0 27 A C -0.000003
0 27 A U -0.000150
0 27 A G 0.000001
0 27 A - 0.000001
0 27 C A 0.000001
0 27 C C -0.000006
0 27 C U 0.002704
0 27 C G -0.000000
0 27 C - 0.000001
0 27 U A 0.000001
0 27 U C 0.000006
0 27 U U -0.000011
0 27 U G 0.000010
0 27 U - 0.000001
0 27 G A 0.000945
0 27 G C 0.001475
0 27 G U -0.001513
0 27 G G -0.005180
0 27 G - -0.000007
0 27 - A -0.000002
0 27 - C 0.000011
0 27 - U -0.001144
0 27 - G 0.000006
0 27 - - 0.000001
0 28 A A 0.000791
0 28 A C 0.000007
0 28 A U 0.000003
0 28 A G -0.001906
0 28 A - 0.000009
0 28 C A 0.000005
0 28 C C 0.000007
0 28 C U 0.000009
0 28 C G 0.002693
0 28 C - 0.000002
0 28 U A 0.000002
0 28 U C 0.000002
0 28 U U 0.000002
0 28 U G 0.000343
0 28 U - 0.000002
0 28 G A 0.003102
0 28 G C -0.002971
0 28 G U -0.003477
0 28 G G -0.001733
0 28 G - 0.001570
0 28 - A 0.000001
0 28 - C 0.000007
0 28 - U 0.000007
0 28 - G 0.000033
0 28 - - 0.000002
0 29 A A 0.000007
0 29 A C -0.000946
0 29 A U -0.000002
0 29 A G -0.000005
0 29 A - 0.000007
0 29 C A 0.000009
0 29 C C 0.001658
0 29 C U 0.000812
0 29 C G -0.000009
0 29 C - 0.000007
0 29 U A 0.000006
0 29 U C 0.000578
0 29 U U -0.000006
0 29 U G 0.000007
0 29 U - 0.000007
0 29 G A -0.000853
0 29 G C 0.003956
0 29 G U -0.003246
0 29 G G 0.001768
0 29 G - -0.000003
0 29 - A -0.000009
0 29 - C 0.000017
0 29 - U -0.000006
0 29 - G -0.000008
0 29 - - 0.000007
0 30 A A -0.008902
0 30 A C 0.000001
0 30 A U 0.000852
0 30 A G 0.000004
0 30 A - -0.000001
0 30 C A 0.003519
0 30 C C -0.000001
0 30 C U -0.000001
0 30 C G 0.000006
0 30 C - -0.000001
0 30 U A -0.000011
0 30 U C -0.000001
0 30 U U 0.000004
0 30 U G -0.000007
0 30 U - -0.000002
0 30 G A -0.004107
0 30 G C 0.002954
0 30 G U -0.003702
0 30 G G 0.001497
0 30 G - 0.000008
0 30 - A -0.000017
0 30 - C 0.000007
0 30 - U -0.000000
0 30 - G 0.000524
0 30 - - -0.000001
0 31 A A -0.000006
0 31 A C 0.000007
0 31 A U 0.000009
0 31 A G -0.002711
0 31 A - 0.000010
0 31 C A 0.000007
0 31 C C 0.000007
0 31 C U -0.000002
0 31 C G 0.003929
0 31 C - -0.000001
0 31 U A 0.000007
0 31 U C 0.000007
0 31 U U 0.000001
0 31 U G 0.000330
0 31 U - 0.000007
0 31 G A -0.000013
0 31 G C -0.000009
0 31 G U 0.000202
0 31 G G -0.001547
0 31 G - 0.000044
0 31 - A 0.000007
0 31 - C 0.000007
0 31 - U 0.000007
0 31 - G -0.000072
0 31 - - 0.000007
0 32 A A -0.000008
0 32 A C -0.000002
0 32 A U -0.000002
0 32 A G -0.001587
0 32 A - -0.000002
0 32 C A 0.000008
0 32 C C -0.000002
0 32 C U -0.000002
0 32 C G 0.002706
0 32 C - -0.000002
0 32 U A 0.000010
0 32 U C -0.000002
0 32 U U -0.000002
0 32 U G 0.000393
0 32 U - -0.000002
0 32 G A -0.017482
0 32 G C 0.008869
0 32 G U 0.001181
0 32 G G -0.004182
0 32 G - 0.000008
0 32 - A -0.000001
0 32 - C -0.000002
0 32 - U -0.000002
0 32 - G -0.000039
0 32 - - -0.000002
0 33 A A -0.000007
0 33 A C -0.000064
0 33 A U -0.000001
0 33 A G -0.000001
0 33 A - -0.000007
0 33 C A 0.000011
0 33 C C 0.006158
0 33 C U -0.000007
0 33 C G -0.000007
0 33 C - -0.000007
0 33 U A -0.000007
0 33 U C 0.000710
0 33 U U -0.000007
0 33 U G -0.000007
0 33 U - -0.000007
0 33 G A -0.000006
0 33 G C -0.079879
0 33 G U -0.000014
0 33 G G 0.012607
0 33 G - 0.000865
0 33 - A -0.000007
0 33 - C 0.000138
0 33 - U -0.000007
0 33 - G -0.000007
0 33 - - -0.000007
0 34 A A -0.000008
0 34 A C 0.000001
0 34 A U -0.002604
0 34 A G -0.000005
0 34 A - -0.000005
0 34 C A -0.000005
0 34 C C 0.000775
0 34 C U 0.003507
0 34 C G 0.000001
0 34 C - 0.000009
0 34 U A -0.000005
0 34 U C -0.000005
0 34 U U 0.000496
0 34 U G -0.000005
0 34 U - -0.000005
0 34 G A -0.000010
0 34 G C -0.000003
0 34 G U -0.026838
0 34 G G 0.000001
0 34 G - 0.000709
0 34 - A -0.000005
0 34 - C -0.000005
0 34 - U -0.000014
0 34 - G -0.000001
0 34 - - -0.000005
0 35 A A 0.000002
0 35 A C 0.000002
0 35 A U -0.000591
0 35 A G 0.000008
0 35 A - 0.000002
0 35 C A 0.000002
0 35 C C 0.000002
0 35 C U 0.005709
0 35 C G -0.000004
0 35 C - 0.000002
0 35 U A 0.000002
0 35 U C 0.000006
0 35 U U 0.000690
0 35 U G 0.000002
0 35 U - 0.000002
0 35 G A 0.000826
0 35 G C -0.000002
0 35 G U -0.062774
0 35 G G 0.000002
0 35 G - 0.000006
0 35 - A 0.000002
0 35 - C 0.000002
0 35 - U 0.000252
0 35 - G 0.000008
0 35 - - 0.000002
0 36 A A -0.000005
0 36 A C -0.001215
0 36 A U 0.000000
0 36 A G -0.000005
0 36 A - -0.000005
0 36 C A -0.000003
0 36 C C 0.004697
0 36 C U -0.000005
0 36 C G -0.000005
0 36 C - -0.000005
0 36 U A -0.000005
0 36 U C 0.000503
0 36 U U -0.000005
0 36 U G -0.000005
0 36 U - -0.000005
0 36 G A -0.000001
0 36 G C -0.029933
0 36 G U 0.001225
0 36 G G 0.000003
0 36 G - -0.000000
0 36 - A -0.000005
0 36 - C -0.000016
0 36 - U -0.000005
0 36 - G -0.000005
0 36 - - -0.000007
0 37 A A -0.002284
0 37 A C 0.000004
0 37 A U 0.000004
0 37 A G 0.000004
0 37 A - 0.000004
0 37 C A 0.004478
0 37 C C 0.000010
0 37 C U 0.000004
0 37 C G 0.000004
0 37 C - 0.000004
0 37 U A 0.000436
0 37 U C 0.000004
0 37 U U 0.000004
0 37 U G 0.000004
0 37 U - 0.000004
0 37 G A -0.019074
0 37 G C -0.000004
0 37 G U -0.000008
0 37 G G 0.000008
0 37 G - 0.000734
0 37 - A -0.000018
0 37 - C 0.000004
0 37 - U 0.000004
0 37 - G 0.000004
0 37 - - 0.000004
0 38 A A -0.002564
0 38 A C 0.000007
0 38 A U 0.000007
0 38 A G -0.000003
0 38 A - 0.000007
0 38 C A 0.004125
0 38 C C 0.000007
0 38 C U 0.000007
0 38 C G 0.000006
0 38 C - 0.000007
0 38 U A 0.000366
0 38 U C 0.000007
0 38 U U 0.000001
0 38 U G -0.000005
0 38 U - 0.000007
0 38 G A -0.006891
0 38 G C 0.000877
0 38 G U 0.000005
0 38 G G 0.000625
0 38 G - 0.000882
0 38 - A -0.000068
0 38 - C 0.000007
0 38 - U 0.000007
0 38 - G 0.000007
0 38 - - 0.000007
0 39 A A -0.004297
0 39 A C 0.000010
0 39 A U -0.000003
0 39 A G 0.000006
0 39 A - 0.000000
0 39 C A 0.004040
0 39 C C 0.000006
0 39 C U -0.000001
0 39 C G -0.000003
0 39 C - -0.000003
0 39 U A 0.000640
0 39 U C 0.000004
0 39 U U -0.000003
0 39 U G -0.000003
0 39 U - -0.000003
0 39 G A -0.006355
0 39 G C -0.000003
0 39 G U 0.000004
0 39 G G 0.002480
0 39 G - -0.000062
0 39 - A 0.000064
0 39 - C -0.000003
0 39 - U 0.000007
0 39 - G 0.000004
0 39 - - -0.000003
0 40 A A -0.000006
0 40 A C -0.001413
0 40 A U -0.000009
0 40 A G -0.000006
0 40 A - -0.000006
0 40 C A -0.000006
0 40 C C 0.002832
0 40 C U -0.000005
0 40 C G -0.000006
0 40 C - -0.000006
0 40 U A -0.000006
0 40 U C 0.000459
0 40 U U 0.000005
0 40 U G -0.000006
0 40 U - -0.000006
0 40 G A 0.000009
0 40 G C -0.003820
0 40 G U -0.025388
0 40 G G 0.005556
0 40 G - 0.002433
0 40 - A -0.000006
0 40 - C -0.000015
0 40 - U 0.000010
0 40 - G -0.000006
0 40 - - -0.000006
0 41 A A -0.000010
0 41 A C -0.001935
0 41 A U -0.000010
0 41 A G -0.000004
0 41 A - -0.000005
0 41 C A -0.000006
0 41 C C 0.003713
0 41 C U 0.000006
0 41 C G 0.000003
0 41 C - -0.000010
0 41 U A -0.000010
0 41 U C 0.000281
0 41 U U -0.000010
0 41 U G -0.000005
0 41 U - -0.000010
0 41 G A 0.000007
0 41 G C -0.000977
0 41 G U -0.001452
0 41 G G 0.007698
0 41 G - -0.000001
0 41 - A -0.000010
0 41 - C 0.000014
0 41 - U -0.000004
0 41 - G -0.000010
0 41 - - -0.000010
0 42 A A 0.000007
0 42 A C 0.000007
0 42 A U -0.014002
0 42 A G 0.000001
0 42 A - 0.000002
0 42 C A -0.000006
0 42 C C -0.000005
0 42 C U 0.003647
0 42 C G -0.000006
0 42 C - -0.000006
0 42 U A -0.000006
0 42 U C -0.000005
0 42 U U -0.000007
0 42 U G -0.000002
0 42 U - -0.000006
0 42 G A -0.005972
0 42 G C 0.002112
0 42 G U -0.003235
0 42 G G 0.001841
0 42 G - -0.000008
0 42 - A -0.000002
0 42 - C 0.000536
0 42 - U -0.000008
0 42 - G 0.000005
0 42 - - -0.000006
0 43 A A 0.000001
0 43 A C -0.000004
0 43 A U 0.000009
0 43 A G -0.003587
0 43 A - -0.000009
0 43 C A 0.000002
0 43 C C -0.000008
0 43 C U -0.000006
0 43 C G 0.002691
0 43 C - 0.000009
0 43 U A 0.000009
0 43 U C 0.000009
0 43 U U -0.000006
0 43 U G 0.000322
0 43 U - 0.000009
0 43 G A -0.002215
0 43 G C 0.001841
0 43 G U -0.000763
0 43 G G 0.003431
0 43 G - -0.000003
0 43 - A -0.000004
0 43 - C -0.000005
0 43 - U 0.000008
0 43 - G 0.000036
0 43 - - 0.000009
0 44 A A 0.000006
0 44 A C -0.000010
0 44 A U -0.002724
0 44 A G -0.000010
0 44 A - 0.000006
0 44 C A 0.000006
0 44 C C 0.000006
0 44 C U 0.002693
0 44 C G -0.000010
0 44 C - 0.000006
0 44 U A 0.000006
0 44 U C 0.000006
0 44 U U 0.000344
0 44 U G 0.000006
0 44 U - 0.000006
0 44 G A 0.002999
0 44 G C 0.000327
0 44 G U 0.000720
0 44 G G -0.003031
0 44 G - 0.000006
0 44 - A 0.000006
0 44 - C 0.000006
0 44 - U -0.000143
0 44 - G -0.000008
0 44 - - 0.000006
0 45 A A -0.001670
0 45 A C 0.000009
0 45 A U -0.000002
0 45 A G 0.000003
0 45 A - 0.000009
0 45 C A 0.002706
0 45 C C -0.000008
0 45 C U 0.000009
0 45 C G 0.000003
0 45 C - 0.000009
0 45 U A -0.000007
0 45 U C -0.000004
0 45 U U 0.000009
0 45 U G -0.000007
0 45 U - 0.000009
0 45 G A 0.000997
0 45 G C 0.016580
0 45 G U -0.006773
0 45 G G -0.015643
0 45 G - 0.000624
0 45 - A -0.002137
0 45 - C 0.000009
0 45 - U 0.000003
0 45 - G 0.000023
0 45 - - 0.000659
0 46 A A -0.000009
0 46 A C -0.000009
0 46 A U -0.000009
0 46 A G -0.002532
0 46 A - -0.000009
0 46 C A -0.000009
0 46 C C 0.000000
0 46 C U -0.000009
0 46 C G 0.004157
0 46 C - -0.000009
0 46 U A -0.000009
0 46 U C -0.000009
0 46 U U -0.000009
0 46 U G 0.000378
0 46 U - -0.000002
0 46 G A 0.000853
0 46 G C 0.000961
0 46 G U 0.000001
0 46 G G -0.011387
0 46 G - 0.000945
0 46 - A -0.000009
0 46 - C -0.000009
0 46 - U -0.000009
0 46 - G -0.000048
0 46 - - -0.000009
0 47 A A -0.000009
0 47 A C -0.000176
0 47 A U 0.000894
0 47 A G -0.000007
0 47 A - 0.000012
0 47 C A 0.000000
0 47 C C 0.002743
0 47 C U 0.000004
0 47 C G 0.000201
0 47 C - 0.000009
0 47 U A 0.000009
0 47 U C -0.000007
0 47 U U 0.000009
0 47 U G 0.000168
0 47 U - 0.000009
0 47 G A -0.000684
0 47 G C 0.003111
0 47 G U 0.003496
0 47 G G -0.058553
0 47 G - 0.007024
0 47 - A 0.000010
0 47 - C -0.000011
0 47 - U -0.000008
0 47 - G 0.000841
0 47 - - 0.000009
0 48 A A -0.000009
0 48 A C 0.000784
0 48 A U -0.002742
0 48 A G -0.000002
0 48 A - -0.000009
0 48 C A -0.000009
0 48 C C 0.004599
0 48 C U 0.001670
0 48 C G -0.000009
0 48 C - -0.000009
0 48 U A -0.000009
0 48 U C -0.000009
0 48 U U 0.000003
0 48 U G -0.000009
0 48 U - -0.000009
0 48 G A 0.000724
0 48 G C -0.003908
0 48 G U -0.003191
0 48 G G -0.001259
0 48 G - 0.001292
0 48 - A -0.000009
0 48 - C 0.000300
0 48 - U -0.000011
0 48 - G 0.000001
0 48 - - -0.000009
0 49 A A 0.000009
0 49 A C 0.000009
0 49 A U -0.000008
0 49 A G -0.001756
0 49 A - -0.000004
0 49 C A 0.000009
0 49 C C 0.000009
0 49 C U -0.000001
0 49 C G 0.002695
0 49 C - 0.000009
0 49 U A 0.000009
0 49 U C -0.000007
0 49 U U 0.000009
0 49 U G -0.000004
0 49 U - 0.000009
0 49 G A -0.000004
0 49 G C -0.000530
0 49 G U -0.000004
0 49 G G -0.000551
0 49 G - 0.000002
0 49 - A -0.000004
0 49 - C 0.000005
0 49 - U -0.000004
0 49 - G 0.000224
0 49 - - 0.000009
0 50 A A 0.000492
0 50 A C -0.000001
0 50 A U -0.000018
0 50 A G 0.000003
0 50 A - -0.000010
0 50 C A 0.004110
0 50 C C 0.000004
0 50 C U 0.001676
0 50 C G 0.000004
0 50 C - 0.000004
0 50 U A -0.000002
0 50 U C 0.000003
0 50 U U -0.000007
0 50 U G 0.000004
0 50 U - 0.000004
0 50 G A 0.000791
0 50 G C 0.002004
0 50 G U -0.003533
0 50 G G -0.004641
0 50 G - 0.000549
0 50 - A 0.000660
0 50 - C 0.000006
0 50 - U -0.000007
0 50 - G -0.000015
0 50 - - 0.000004
0 51 A A -0.000001
0 51 A C -0.000884
0 51 A U 0.000752
0 51 A G 0.000006
0 51 A - -0.000003
0 51 C A -0.000001
0 51 C C 0.000758
0 51 C U 0.001765
0 51 C G 0.000003
0 51 C - 0.000000
0 51 U A -0.000002
0 51 U C 0.000005
0 51 U U 0.000001
0 51 U G 0.000008
0 51 U - -0.000001
0 51 G A -0.003117
0 51 G C -0.000611
0 51 G U -0.001314
0 51 G G -0.000072
0 51 G - 0.002746
0 51 - A -0.000004
0 51 - C -0.000013
0 51 - U -0.000011
0 51 - G 0.000865
0 51 - - -0.000001
0 52 A A -0.000000
0 52 A C -0.000003
0 52 A U -0.001984
0 52 A G -0.000010
0 52 A - -0.000000
0 52 C A -0.000008
0 52 C C -0.000000
0 52 C U 0.002708
0 52 C G -0.000008
0 52 C - -0.000000
0 52 U A -0.000000
0 52 U C 0.000005
0 52 U U 0.000673
0 52 U G 0.000006
0 52 U - -0.000000
0 52 G A 0.002397
0 52 G C 0.002396
0 52 G U -0.006402
0 52 G G -0.010770
0 52 G - 0.000330
0 52 - A -0.000000
0 52 - C -0.000006
0 52 - U 0.000249
0 52 - G -0.000009
0 52 - - -0.000000
0 53 A A 0.005620
0 53 A C -0.000008
0 53 A U 0.000008
0 53 A G -0.022034
0 53 A - 0.000002
0 53 C A 0.002734
0 53 C C 0.000005
0 53 C U -0.000005
0 53 C G -0.000007
0 53 C - -0.000008
0 53 U A 0.000005
0 53 U C 0.000008
0 53 U U 0.000111
0 53 U G -0.000006
0 53 U - -0.000008
0 53 G A -0.063210
0 53 G C -0.000165
0 53 G U -0.000542
0 53 G G -0.000349
0 53 G - 0.045846
0 53 - A -0.000003
0 53 - C -0.000008
0 53 - U 0.000560
0 53 - G -0.000005
0 53 - - -0.000008
0 54 A A 0.000006
0 54 A C -0.000003
0 54 A U -0.000003
0 54 A G -0.001764
0 54 A - 0.000004
0 54 C A 0.000000
0 54 C C -0.000003
0 54 C U -0.000003
0 54 C G 0.013569
0 54 C - 0.000009
0 54 U A 0.000001
0 54 U C -0.000003
0 54 U U -0.000003
0 54 U G 0.000637
0 54 U - -0.000003
0 54 G A -0.021326
0 54 G C -0.000001
0 54 G U 0.001508
0 54 G G -0.003286
0 54 G - 0.010644
0 54 - A 0.000002
0 54 - C -0.000003
0 54 - U -0.000003
0 54 - G -0.002609
0 54 - - -0.000001
0 55 A A -0.000002
0 55 A C 0.000550
0 55 A U -0.000013
0 55 A G -0.000003
0 55 A - -0.000009
0 55 C A -0.000004
0 55 C C 0.002682
0 55 C U 0.000003
0 55 C G 0.000008
0 55 C - -0.000006
0 55 U A -0.000009
0 55 U C 0.000533
0 55 U U -0.000005
0 55 U G 0.000000
0 55 U - -0.000001
0 55 G A -0.003514
0 55 G C -0.006445
0 55 G U -0.006026
0 55 G G 0.004117
0 55 G - 0.019096
0 55 - A -0.000009
0 55 - C -0.000285
0 55 - U 0.000004
0 55 - G 0.000646
0 55 - - -0.000006
0 56 A A 0.000001
0 56 A C -0.000005
0 56 A U 0.000008
0 56 A G 0.000626
0 56 A - -0.000004
0 56 C A -0.000003
0 56 C C -0.000002
0 56 C U -0.000001
0 56 C G 0.002700
0 56 C - -0.000010
0 56 U A -0.000005
0 56 U C -0.000005
0 56 U U -0.000001
0 56 U G 0.000348
0 56 U - -0.000001
0 56 G A -0.000992
0 56 G C 0.003023
0 56 G U -0.022960
0 56 G G -0.000745
0 56 G - 0.015354
0 56 - A -0.000004
0 56 - C 0.000879
0 56 - U -0.000003
0 56 - G -0.000100
0 56 - - -0.000010
0 57 A A -0.000009
0 57 A C 0.003788
0 57 A U 0.000801
0 57 A G 0.000004
0 57 A - -0.000006
0 57 C A 0.001786
0 57 C C 0.000003
0 57 C U 0.006648
0 57 C G 0.000014
0 57 C - 0.000008
0 57 U A 0.000003
0 57 U C 0.000008
0 57 U U 0.000211
0 57 U G 0.000009
0 57 U - 0.000008
0 57 G A 0.018251
0 57 G C 0.002542
0 57 G U 0.008886
0 57 G G -0.155809
0 57 G - 0.017246
0 57 - A 0.000007
0 57 - C -0.000008
0 57 - U 0.000913
0 57 - G 0.000013
0 57 - - 0.000008
0 58 A A 0.000002
0 58 A C -0.001756
0 58 A U -0.000004
0 58 A G 0.000002
0 58 A - -0.000004
0 58 C A 0.000006
0 58 C C 0.002685
0 58 C U -0.000004
0 58 C G -0.000004
0 58 C - -0.000004
0 58 U A -0.000004
0 58 U C 0.000006
0 58 U U -0.000004
0 58 U G 0.000002
0 58 U - -0.000004
0 58 G A 0.000188
0 58 G C -0.002513
0 58 G U -0.000155
0 58 G G 0.000053
0 58 G - -0.000001
0 58 - A -0.000001
0 58 - C 0.000062
0 58 - U 0.000002
0 58 - G 0.000001
0 58 - - -0.000004
0 59 A A -0.003299
0 59 A C 0.000003
0 59 A U 0.000003
0 59 A G 0.000806
0 59 A - 0.000009
0 59 C A 0.001701
0 59 C C 0.000003
0 59 C U 0.000003
0 59 C G 0.005505
0 59 C - 0.000003
0 59 U A -0.000007
0 59 U C 0.000008
0 59 U U 0.000003
0 59 U G 0.000068
0 59 U - 0.000004
0 59 G A 0.023947
0 59 G C -0.000983
0 59 G U 0.000004
0 59 G G -0.052476
0 59 G - 0.001875
0 59 - A 0.000001
0 59 - C 0.000003
0 59 - U -0.000000
0 59 - G 0.000408
0 59 - - 0.000003
0 60 A A 0.000824
0 60 A C 0.000005
0 60 A U -0.000004
0 60 A G -0.036024
0 60 A - -0.000001
0 60 C A -0.000006
0 60 C C -0.000007
0 60 C U -0.000008
0 60 C G 0.002681
0 60 C - -0.000001
0 60 U A -0.000001
0 60 U C 0.000009
0 60 U U -0.000001
0 60 U G -0.000009
0 60 U - -0.000001
0 60 G A -0.001015
0 60 G C -0.084515
0 60 G U -0.003234
0 60 G G 0.122317
0 60 G - 0.004010
0 60 - A -0.000006
0 60 - C 0.000642
0 60 - U -0.000004
0 60 - G -0.000293
0 60 - - -0.000001
0 61 A A -0.001524
0 61 A C 0.000010
0 61 A U -0.000004
0 61 A G 0.000010
0 61 A - 0.000010
0 61 C A 0.004275
0 61 C C 0.000002
0 61 C U 0.000010
0 61 C G 0.000010
0 61 C - 0.000010
0 61 U A 0.000401
0 61 U C -0.000008
0 61 U U 0.000010
0 61 U G 0.000010
0 61 U - 0.000010
0 61 G A -0.017311
0 61 G C 0.000704
0 61 G U 0.000004
0 61 G G 0.000396
0 61 G - 0.000841
0 61 - A -0.000046
0 61 - C 0.000010
0 61 - U 0.000010
0 61 - G 0.000010
0 61 - - 0.000010
0 62 A A 0.000002
0 62 A C 0.000002
0 62 A U 0.000002
0 62 A G -0.002646
0 62 A - 0.000002
0 62 C A 0.000002
0 62 C C 0.000002
0 62 C U 0.000004
0 62 C G 0.004031
0 62 C - 0.000002
0 62 U A 0.000002
0 62 U C -0.000008
0 62 U U 0.000002
0 62 U G 0.000002
0 62 U - 0.000002
0 62 G A -0.000394
0 62 G C 0.004456
0 62 G U 0.000019
0 62 G G -0.008948
0 62 G - -0.000008
0 62 - A 0.000002
0 62 - C 0.000002
0 62 - U 0.000008
0 62 - G 0.000076
0 62 - - 0.000002
0 63 A A 0.000006
0 63 A C -0.000006
0 63 A U -0.000838
0 63 A G -0.000001
0 63 A - -0.000010
0 63 C A 0.000748
0 63 C C 0.000326
0 63 C U 0.001759
0 63 C G 0.000005
0 63 C - 0.000009
0 63 U A -0.000008
0 63 U C 0.000004
0 63 U U 0.000003
0 63 U G 0.000010
0 63 U - 0.000009
0 63 G A -0.006748
0 63 G C -0.001076
0 63 G U -0.001015
0 63 G G 0.002632
0 63 G - 0.002092
0 63 - A -0.000008
0 63 - C 0.000381
0 63 - U -0.000012
0 63 - G -0.000005
0 63 - - 0.000009
0 64 A A -0.000004
0 64 A C 0.000009
0 64 A U 0.000007
0 64 A G -0.007754
0 64 A - 0.000010
0 64 C A 0.000004
0 64 C C 0.000007
0 64 C U 0.000006
0 64 C G 0.002693
0 64 C - 0.000010
0 64 U A 0.000009
0 64 U C 0.000001
0 64 U U 0.000010
0 64 U G 0.000406
0 64 U - 0.000010
0 64 G A -0.006602
0 64 G C 0.000314
0 64 G U -0.003817
0 64 G G 0.002114
0 64 G - 0.003548
0 64 - A -0.000000
0 64 - C 0.000907
0 64 - U 0.000010
0 64 - G -0.000803
0 64 - - 0.000010
0 65 A A -0.000000
0 65 A C 0.000008
0 65 A U 0.000008
0 65 A G -0.002658
0 65 A - 0.000008
0 65 C A 0.000008
0 65 C C 0.000008
0 65 C U 0.000003
0 65 C G 0.004034
0 65 C - -0.000007
0 65 U A 0.000008
0 65 U C 0.000008
0 65 U U -0.000007
0 65 U G 0.000353
0 65 U - 0.000008
0 65 G A -0.000003
0 65 G C 0.000007
0 65 G U 0.001472
0 65 G G -0.004323
0 65 G - -0.000001
0 65 - A 0.000008
0 65 - C 0.000008
0 65 - U 0.000008
0 65 - G -0.000075
0 65 - - 0.000008
0 66 A A 0.000010
0 66 A C 0.000010