# NB_STEPS 3000
# UP_FREQ 1000
# TEMP 1.000000
# LAMBDA 0.010000
# ID_THRES 1.000000
# ALPHA 1.000000
0 0 A A -0.007921
0 0 C C 0.004044
0 0 U U -0.002396
0 0 G G -0.001400
0 0 - - 0.011087
0 1 A A 0.000010
0 1 A C -0.048060
0 1 A U -0.000015
0 1 A G 0.002766
0 1 A - 0.000007
0 1 C A -0.000007
0 1 C C 0.068201
0 1 C U -0.000004
0 1 C G -0.000007
0 1 C - -0.000007
0 1 U A 0.000006
0 1 U C 0.002526
0 1 U U -0.001501
0 1 U G -0.000007
0 1 U - 0.000004
0 1 G A -0.000004
0 1 G C -0.137666
0 1 G U -0.000099
0 1 G G 0.001388
0 1 G - 0.002921
0 1 - A -0.000007
0 1 - C 0.041688
0 1 - U -0.000006
0 1 - G -0.000007
0 1 - - -0.000007
0 2 A A -0.025762
0 2 A C -0.000006
0 2 A U 0.000003
0 2 A G 0.000010
0 2 A - 0.000767
0 2 C A 0.013284
0 2 C C 0.000010
0 2 C U 0.000010
0 2 C G 0.000010
0 2 C - 0.000010
0 2 U A -0.002486
0 2 U C 0.000010
0 2 U U 0.000010
0 2 U G -0.000002
0 2 U - -0.000003
0 2 G A -0.036353
0 2 G C -0.000005
0 2 G U -0.000008
0 2 G G 0.000007
0 2 G - 0.000000
0 2 - A 0.030608
0 2 - C 0.000010
0 2 - U 0.000010
0 2 - G -0.000007
0 2 - - 0.000010
0 3 A A -0.000006
0 3 A C -0.000008
0 3 A U -0.012848
0 3 A G 0.000004
0 3 A - 0.000006
0 3 C A 0.000000
0 3 C C 0.000001
0 3 C U 0.005691
0 3 C G 0.000001
0 3 C - 0.000001
0 3 U A 0.000001
0 3 U C -0.000003
0 3 U U -0.002549
0 3 U G 0.000010
0 3 U - -0.000006
0 3 G A -0.000006
0 3 G C 0.000008
0 3 G U -0.026871
0 3 G G -0.000006
0 3 G - 0.000007
0 3 - A 0.000001
0 3 - C 0.000001
0 3 - U 0.020675
0 3 - G 0.000001
0 3 - - 0.000001
0 4 A A 0.000003
0 4 A C -0.011678
0 4 A U 0.001728
0 4 A G 0.000801
0 4 A - 0.001713
0 4 C A 0.000003
0 4 C C 0.007072
0 4 C U 0.001380
0 4 C G 0.000013
0 4 C - 0.000013
0 4 U A 0.000000
0 4 U C -0.055324
0 4 U U 0.008640
0 4 U G 0.000002
0 4 U - 0.000615
0 4 G A 0.002381
0 4 G C 0.057311
0 4 G U -0.051024
0 4 G G -0.093414
0 4 G - 0.012508
0 4 - A 0.000013
0 4 - C 0.035521
0 4 - U -0.000002
0 4 - G 0.000011
0 4 - - 0.000013
0 5 A A 0.006632
0 5 A C -0.001026
0 5 A U 0.005243
0 5 A G 0.000428
0 5 A - 0.001336
0 5 C A 0.022472
0 5 C C 0.000009
0 5 C U 0.000009
0 5 C G 0.000001
0 5 C - 0.000001
0 5 U A -0.145087
0 5 U C 0.002911
0 5 U U 0.062515
0 5 U G 0.007395
0 5 U - -0.000003
0 5 G A -0.000803
0 5 G C 0.004170
0 5 G U -0.126760
0 5 G G 0.007384
0 5 G - 0.016854
0 5 - A 0.038801
0 5 - C 0.000750
0 5 - U 0.000009
0 5 - G 0.000004
0 5 - - 0.000001
0 6 A A 0.013252
0 6 A C -0.061354
0 6 A U 0.000624
0 6 A G 0.001094
0 6 A - 0.000012
0 6 C A 0.003948
0 6 C C 0.000012
0 6 C U -0.000001
0 6 C G 0.000360
0 6 C - 0.000005
0 6 U A 0.002160
0 6 U C -0.000001
0 6 U U 0.001917
0 6 U G 0.000382
0 6 U - 0.000004
0 6 G A -0.162602
0 6 G C 0.053189
0 6 G U 0.010149
0 6 G G 0.000467
0 6 G - 0.001893
0 6 - A 0.015164
0 6 - C 0.000011
0 6 - U 0.000005
0 6 - G 0.000544
0 6 - - 0.000005
0 7 A A -0.000001
0 7 A C 0.000004
0 7 A U -0.000005
0 7 A G -0.012500
0 7 A - -0.000009
0 7 C A 0.000003
0 7 C C 0.000003
0 7 C U 0.000003
0 7 C G 0.010392
0 7 C - 0.000003
0 7 U A 0.000003
0 7 U C 0.000003
0 7 U U -0.000003
0 7 U G -0.003887
0 7 U - 0.000935
0 7 G A -0.000004
0 7 G C -0.000008
0 7 G U 0.000002
0 7 G G -0.059322
0 7 G - 0.000423
0 7 - A 0.000003
0 7 - C 0.000003
0 7 - U 0.000003
0 7 - G 0.030093
0 7 - - 0.000006
0 8 A A -0.046537
0 8 A C 0.000007
0 8 A U 0.000005
0 8 A G 0.000009
0 8 A - 0.000008
0 8 C A 0.014955
0 8 C C 0.000003
0 8 C U 0.000003
0 8 C G 0.000003
0 8 C - 0.000003
0 8 U A -0.000997
0 8 U C 0.000007
0 8 U U 0.000002
0 8 U G -0.000006
0 8 U - 0.000003
0 8 G A -0.025980
0 8 G C -0.000007
0 8 G U 0.000005
0 8 G G -0.000005
0 8 G - 0.000006
0 8 - A 0.024400
0 8 - C 0.000003
0 8 - U 0.000003
0 8 - G 0.000005
0 8 - - 0.000003
0 9 A A -0.000018
0 9 A C 0.000001
0 9 A U -0.000004
0 9 A G -0.016432
0 9 A - 0.000010
0 9 C A -0.000008
0 9 C C -0.000001
0 9 C U -0.000003
0 9 C G 0.003506
0 9 C - -0.000008
0 9 U A -0.000002
0 9 U C -0.000001
0 9 U U 0.000966
0 9 U G -0.017320
0 9 U - -0.000011
0 9 G A 0.000167
0 9 G C 0.001281
0 9 G U -0.000129
0 9 G G -0.001059
0 9 G - 0.001025
0 9 - A -0.000008
0 9 - C -0.000008
0 9 - U 0.000008
0 9 - G 0.017166
0 9 - - 0.000000
0 10 A A 0.077057
0 10 A C 0.030282
0 10 A U -0.036298
0 10 A G 0.003309
0 10 A - -0.058090
0 10 C A 0.000002
0 10 C C 0.000001
0 10 C U 0.001251
0 10 C G 0.000002
0 10 C - 0.001671
0 10 U A -0.178711
0 10 U C -0.038045
0 10 U U 0.069624
0 10 U G 0.000004
0 10 U - 0.066858
0 10 G A 0.052234
0 10 G C -0.003908
0 10 G U -0.057248
0 10 G G -0.000010
0 10 G - 0.002277
0 10 - A 0.000964
0 10 - C 0.000011
0 10 - U 0.001390
0 10 - G 0.000002
0 10 - - 0.000000
0 11 A A -0.028935
0 11 A C -0.002295
0 11 A U -0.005146
0 11 A G -0.002298
0 11 A - 0.000673
0 11 C A 0.000004
0 11 C C -0.000006
0 11 C U -0.000009
0 11 C G -0.000006
0 11 C - 0.000002
0 11 U A -0.169314
0 11 U C -0.000008
0 11 U U -0.000357
0 11 U G -0.000696
0 11 U - 0.001793
0 11 G A 0.383589
0 11 G C -0.009103
0 11 G U -0.002002
0 11 G G -0.117813
0 11 G - 0.001201
0 11 - A -0.000009
0 11 - C -0.000002
0 11 - U 0.000408
0 11 - G 0.000934
0 11 - - -0.000009
0 12 A A 0.028882
0 12 A C 0.154411
0 12 A U -0.000803
0 12 A G -0.021414
0 12 A - 0.000417
0 12 C A 0.000004
0 12 C C 0.000004
0 12 C U 0.001046
0 12 C G 0.004308
0 12 C - 0.000004
0 12 U A -0.000746
0 12 U C -0.000001
0 12 U U 0.048429
0 12 U G 0.000548
0 12 U - 0.000014
0 12 G A 0.003240
0 12 G C -0.422165
0 12 G U 0.000408
0 12 G G 0.055486
0 12 G - 0.028164
0 12 - A 0.000480
0 12 - C 0.000006
0 12 - U 0.000970
0 12 - G 0.015461
0 12 - - 0.000001
0 13 A A -0.001118
0 13 A C 0.002071
0 13 A U 0.000607
0 13 A G 0.002958
0 13 A - 0.000248
0 13 C A 0.000014
0 13 C C 0.000012
0 13 C U 0.001030
0 13 C G 0.014094
0 13 C - -0.000005
0 13 U A 0.050626
0 13 U C -0.000149
0 13 U U -0.006125
0 13 U G 0.002351
0 13 U - 0.000002
0 13 G A 0.001168
0 13 G C -0.003201
0 13 G U 0.032685
0 13 G G -0.219368
0 13 G - 0.014817
0 13 - A -0.000005
0 13 - C 0.000013
0 13 - U 0.000498
0 13 - G 0.002723
0 13 - - -0.000005
0 14 A A -0.019615
0 14 A C -0.001975
0 14 A U -0.005105
0 14 A G 0.016483
0 14 A - 0.012666
0 14 C A 0.000005
0 14 C C 0.000011
0 14 C U 0.000748
0 14 C G 0.004224
0 14 C - -0.000004
0 14 U A 0.009820
0 14 U C 0.001819
0 14 U U 0.000923
0 14 U G -0.001390
0 14 U - 0.001205
0 14 G A -0.005964
0 14 G C 0.021939
0 14 G U 0.003784
0 14 G G 0.001882
0 14 G - -0.107177
0 14 - A -0.000001
0 14 - C -0.000000
0 14 - U 0.000009
0 14 - G 0.001678
0 14 - - 0.000292
0 15 A A -0.464494
0 15 A C 0.001126
0 15 A U -0.000436
0 15 A G 0.190650
0 15 A - 0.031070
0 15 C A 0.038354
0 15 C C -0.000006
0 15 C U 0.000005
0 15 C G 0.000087
0 15 C - 0.000011
0 15 U A 0.024349
0 15 U C 0.000334
0 15 U U 0.041085
0 15 U G -0.006729
0 15 U - 0.000690
0 15 G A 0.004183
0 15 G C 0.034943
0 15 G U 0.001143
0 15 G G 0.018569
0 15 G - 0.001695
0 15 - A 0.002450
0 15 - C -0.000003
0 15 - U -0.000001
0 15 - G 0.000003
0 15 - - 0.000006
0 16 A A -0.000598
0 16 A C -0.021407
0 16 A U -0.001446
0 16 A G 0.001981
0 16 A - -0.006362
0 16 C A 0.000002
0 16 C C 0.000938
0 16 C U 0.000002
0 16 C G -0.000009
0 16 C - 0.000001
0 16 U A 0.000702
0 16 U C -0.029018
0 16 U U 0.066784
0 16 U G -0.000208
0 16 U - -0.046142
0 16 G A -0.223145
0 16 G C 0.310427
0 16 G U -0.070013
0 16 G G 0.009877
0 16 G - 0.017595
0 16 - A -0.000004
0 16 - C 0.001504
0 16 - U -0.000004
0 16 - G -0.000008
0 16 - - -0.000005
0 17 A A 0.149555
0 17 A C 0.019782
0 17 A U -0.247387
0 17 A G -0.015047
0 17 A - 0.000177
0 17 C A -0.000007
0 17 C C 0.019912
0 17 C U 0.000008
0 17 C G 0.000225
0 17 C - 0.000001
0 17 U A -0.018782
0 17 U C -0.000982
0 17 U U 0.038854
0 17 U G 0.000769
0 17 U - 0.000001
0 17 G A 0.005304
0 17 G C -0.067205
0 17 G U 0.002593
0 17 G G 0.005169
0 17 G - 0.004187
0 17 - A 0.000434
0 17 - C 0.007789
0 17 - U 0.000008
0 17 - G 0.000005
0 17 - - 0.000008
0 18 A A -0.096949
0 18 A C -0.112006
0 18 A U 0.186815
0 18 A G -0.000637
0 18 A - 0.000772
0 18 C A -0.000008
0 18 C C 0.001708
0 18 C U 0.000003
0 18 C G 0.000003
0 18 C - 0.000009
0 18 U A 0.200641
0 18 U C -0.039473
0 18 U U -0.075572
0 18 U G 0.000003
0 18 U - 0.000001
0 18 G A -0.001377
0 18 G C 0.210927
0 18 G U -0.002159
0 18 G G -0.292331
0 18 G - 0.000007
0 18 - A 0.001570
0 18 - C 0.000011
0 18 - U 0.000070
0 18 - G -0.000001
0 18 - - 0.000008
0 19 A A -0.188926
0 19 A C -0.000281
0 19 A U 0.007760
0 19 A G 0.003796
0 19 A - 0.000377
0 19 C A 0.000001
0 19 C C 0.000008
0 19 C U 0.000003
0 19 C G 0.000048
0 19 C - 0.000011
0 19 U A 0.000055
0 19 U C 0.000910
0 19 U U 0.002515
0 19 U G 0.249936
0 19 U - -0.003119
0 19 G A 0.190885
0 19 G C -0.117802
0 19 G U 0.141830
0 19 G G -0.366773
0 19 G - 0.006074
0 19 - A 0.000679
0 19 - C 0.000322
0 19 - U 0.000002
0 19 - G 0.000969
0 19 - - 0.000009
0 20 A A 0.001221
0 20 A C -0.090939
0 20 A U 0.090248
0 20 A G 0.000008
0 20 A - 0.007172
0 20 C A 0.000491
0 20 C C 0.017673
0 20 C U 0.000003
0 20 C G 0.000001
0 20 C - 0.000001
0 20 U A 0.006402
0 20 U C -0.004972
0 20 U U 0.000940
0 20 U G 0.001613
0 20 U - 0.000923
0 20 G A -0.000004
0 20 G C 0.020229
0 20 G U -0.290484
0 20 G G 0.012401
0 20 G - 0.047899
0 20 - A 0.000006
0 20 - C 0.044585
0 20 - U 0.000007
0 20 - G 0.000006
0 20 - - 0.000001
0 21 A A -0.031385
0 21 A C 0.001488
0 21 A U 0.001050
0 21 A G 0.001942
0 21 A - 0.000801
0 21 C A 0.000058
0 21 C C 0.000006
0 21 C U 0.000006
0 21 C G 0.090158
0 21 C - 0.000006
0 21 U A -0.001087
0 21 U C 0.000890
0 21 U U 0.000000
0 21 U G 0.000933
0 21 U - 0.001680
0 21 G A 0.181798
0 21 G C 0.000006
0 21 G U 0.011932
0 21 G G -0.438168
0 21 G - 0.001567
0 21 - A 0.001408
0 21 - C 0.000012
0 21 - U 0.000006
0 21 - G 0.031475
0 21 - - 0.000006
0 22 A A 0.000010
0 22 A C -0.004833
0 22 A U 0.000009
0 22 A G -0.000882
0 22 A - 0.000003
0 22 C A -0.000001
0 22 C C 0.045544
0 22 C U 0.000008
0 22 C G -0.000002
0 22 C - 0.000010
0 22 U A 0.000001
0 22 U C -0.001100
0 22 U U -0.000005
0 22 U G 0.000717
0 22 U - 0.000010
0 22 G A 0.000004
0 22 G C -0.096751
0 22 G U 0.000010
0 22 G G -0.001026
0 22 G - -0.000003
0 22 - A 0.000008
0 22 - C 0.006121
0 22 - U -0.000008
0 22 - G -0.000001
0 22 - - 0.000008
0 23 A A -0.000004
0 23 A C -0.010081
0 23 A U -0.000007
0 23 A G 0.000009
0 23 A - 0.000009
0 23 C A -0.000007
0 23 C C 0.006629
0 23 C U 0.000004
0 23 C G 0.000001
0 23 C - 0.000001
0 23 U A -0.000005
0 23 U C -0.002833
0 23 U U 0.000010
0 23 U G 0.000001
0 23 U - -0.000003
0 23 G A 0.000182
0 23 G C -0.036895
0 23 G U 0.000401
0 23 G G 0.000004
0 23 G - -0.000005
0 23 - A 0.000001
0 23 - C 0.018878
0 23 - U 0.000003
0 23 - G 0.000001
0 23 - - 0.000001
0 24 A A -0.026346
0 24 A C 0.000008
0 24 A U 0.000009
0 24 A G 0.000008
0 24 A - -0.000008
0 24 C A 0.014662
0 24 C C 0.000008
0 24 C U 0.000008
0 24 C G 0.000008
0 24 C - 0.000008
0 24 U A -0.000947
0 24 U C -0.000002
0 24 U U -0.000000
0 24 U G 0.000008
0 24 U - -0.000007
0 24 G A -0.043255
0 24 G C -0.000004
0 24 G U 0.000009
0 24 G G -0.000008
0 24 G - 0.000005
0 24 - A 0.023479
0 24 - C -0.000006
0 24 - U 0.000008
0 24 - G 0.000008
0 24 - - 0.000008
0 25 A A -0.046836
0 25 A C 0.000006
0 25 A U -0.000001
0 25 A G -0.000004
0 25 A - 0.000005
0 25 C A 0.020873
0 25 C C -0.000005
0 25 C U -0.000005
0 25 C G -0.000005
0 25 C - -0.000005
0 25 U A -0.001771
0 25 U C 0.000005
0 25 U U -0.000005
0 25 U G 0.000002
0 25 U - 0.000005
0 25 G A -0.039820
0 25 G C -0.000008
0 25 G U 0.000011
0 25 G G 0.000249
0 25 G - 0.000004
0 25 - A 0.028267
0 25 - C -0.000003
0 25 - U -0.000005
0 25 - G -0.000005
0 25 - - -0.000005
0 26 A A 0.000026
0 26 A C -0.034512
0 26 A U 0.000000
0 26 A G 0.000008
0 26 A - 0.000002
0 26 C A 0.000005
0 26 C C 0.009339
0 26 C U 0.000008
0 26 C G 0.000008
0 26 C - 0.000008
0 26 U A 0.000005
0 26 U C -0.002445
0 26 U U 0.000008
0 26 U G 0.000007
0 26 U - 0.000002
0 26 G A 0.000008
0 26 G C -0.033591
0 26 G U -0.000009
0 26 G G 0.000001
0 26 G - 0.001148
0 26 - A 0.000008
0 26 - C 0.031720
0 26 - U 0.000108
0 26 - G 0.000008
0 26 - - 0.000008
0 27 A A 0.000006
0 27 A C -0.017184
0 27 A U -0.000001
0 27 A G -0.000008
0 27 A - 0.000002
0 27 C A -0.000001
0 27 C C 0.018427
0 27 C U -0.000001
0 27 C G -0.000001
0 27 C - -0.000001
0 27 U A -0.000001
0 27 U C -0.001767
0 27 U U 0.000610
0 27 U G 0.000006
0 27 U - -0.000001
0 27 G A -0.000006
0 27 G C -0.076458
0 27 G U -0.000001
0 27 G G 0.000000
0 27 G - 0.000010
0 27 - A 0.000002
0 27 - C 0.027618
0 27 - U -0.000001
0 27 - G -0.000001
0 27 - - -0.000001
0 28 A A 0.000005
0 28 A C -0.000010
0 28 A U -0.006653
0 28 A G -0.000800
0 28 A - -0.000009
0 28 C A -0.000009
0 28 C C -0.000009
0 28 C U 0.006682
0 28 C G 0.000006
0 28 C - -0.000009
0 28 U A -0.000008
0 28 U C 0.000372
0 28 U U -0.009561
0 28 U G 0.000264
0 28 U - 0.000003
0 28 G A 0.000514
0 28 G C 0.000004
0 28 G U -0.005026
0 28 G G -0.006023
0 28 G - 0.000002
0 28 - A -0.000003
0 28 - C -0.000009
0 28 - U 0.001585
0 28 - G 0.000063
0 28 - - -0.000009
0 29 A A -0.008434
0 29 A C 0.005685
0 29 A U 0.004832
0 29 A G -0.000870
0 29 A - 0.000580
0 29 C A -0.000008
0 29 C C 0.000005
0 29 C U -0.000001
0 29 C G 0.053926
0 29 C - -0.000001
0 29 U A 0.005598
0 29 U C 0.000009
0 29 U U 0.000008
0 29 U G -0.000182
0 29 U - 0.000712
0 29 G A 0.057939
0 29 G C 0.000983
0 29 G U 0.000512
0 29 G G -0.270377
0 29 G - 0.002706
0 29 - A 0.000574
0 29 - C -0.000001
0 29 - U -0.000001
0 29 - G 0.023111
0 29 - - 0.000004
0 30 A A 0.004715
0 30 A C -0.001940
0 30 A U 0.000009
0 30 A G -0.107859
0 30 A - 0.005515
0 30 C A -0.000002
0 30 C C 0.007607
0 30 C U 0.000004
0 30 C G 0.001924
0 30 C - -0.000006
0 30 U A 0.000934
0 30 U C -0.000479
0 30 U U 0.000007
0 30 U G 0.001875
0 30 U - 0.000494
0 30 G A 0.000571
0 30 G C -0.001650
0 30 G U 0.001884
0 30 G G 0.010606
0 30 G - -0.000006
0 30 - A -0.000004
0 30 - C 0.001711
0 30 - U -0.000002
0 30 - G 0.000322
0 30 - - -0.000006
0 31 A A -0.168605
0 31 A C 0.005265
0 31 A U 0.000903
0 31 A G 0.016250
0 31 A - -0.000001
0 31 C A 0.000006
0 31 C C -0.000008
0 31 C U 0.002339
0 31 C G 0.000047
0 31 C - 0.000001
0 31 U A 0.000003
0 31 U C -0.000749
0 31 U U 0.004873
0 31 U G 0.001381
0 31 U - 0.000002
0 31 G A 0.074287
0 31 G C -0.003521
0 31 G U -0.000356
0 31 G G -0.002526
0 31 G - 0.001242
0 31 - A -0.000005
0 31 - C 0.002618
0 31 - U 0.000002
0 31 - G 0.000007
0 31 - - 0.000001
0 32 A A -0.000211
0 32 A C 0.004045
0 32 A U -0.001154
0 32 A G -0.001364
0 32 A - -0.007144
0 32 C A 0.000000
0 32 C C -0.000009
0 32 C U 0.000006
0 32 C G -0.000007
0 32 C - 0.005229
0 32 U A 0.008608
0 32 U C -0.000005
0 32 U U -0.000005
0 32 U G -0.000004
0 32 U - -0.012742
0 32 G A -0.000523
0 32 G C -0.004349
0 32 G U -0.000426
0 32 G G -0.000090
0 32 G - 0.002060
0 32 - A -0.000003
0 32 - C 0.000000
0 32 - U 0.000003
0 32 - G 0.000544
0 32 - - 0.001027
0 33 A A -0.148725
0 33 A C -0.002724
0 33 A U -0.014923
0 33 A G 0.137595
0 33 A - 0.005877
0 33 C A -0.000008
0 33 C C 0.000276
0 33 C U -0.000002
0 33 C G 0.000298
0 33 C - 0.000008
0 33 U A -0.004499
0 33 U C -0.063995
0 33 U U 0.025116
0 33 U G 0.000236
0 33 U - 0.156661
0 33 G A 0.035045
0 33 G C 0.059445
0 33 G U -0.013347
0 33 G G -0.002644
0 33 G - -0.216440
0 33 - A 0.000956
0 33 - C 0.000197
0 33 - U 0.000009
0 33 - G 0.000620
0 33 - - 0.000000
0 34 A A -0.003520
0 34 A C 0.000218
0 34 A U 0.109388
0 34 A G -0.000354
0 34 A - -0.034497
0 34 C A 0.001453
0 34 C C -0.000003
0 34 C U 0.000011
0 34 C G -0.000002
0 34 C - -0.000001
0 34 U A 0.000737
0 34 U C 0.177253
0 34 U U -0.321752
0 34 U G -0.000315
0 34 U - 0.012035
0 34 G A -0.004573
0 34 G C -0.003723
0 34 G U 0.015663
0 34 G G -0.006252
0 34 G - 0.009689
0 34 - A 0.001651
0 34 - C 0.000004
0 34 - U 0.000202
0 34 - G 0.000011
0 34 - - -0.000004
0 35 A A 0.086566
0 35 A C -0.260800
0 35 A U 0.009445
0 35 A G -0.000635
0 35 A - -0.003297
0 35 C A -0.000002
0 35 C C 0.000058
0 35 C U 0.000008
0 35 C G 0.000208
0 35 C - 0.000953
0 35 U A -0.159385
0 35 U C 0.171828
0 35 U U 0.000497
0 35 U G 0.000683
0 35 U - 0.001053
0 35 G A 0.002095
0 35 G C -0.000078
0 35 G U 0.002283
0 35 G G 0.002917
0 35 G - 0.051549
0 35 - A 0.001510
0 35 - C 0.000971
0 35 - U 0.000000
0 35 - G 0.000013
0 35 - - -0.000006
0 36 A A 0.000561
0 36 A C -0.002186
0 36 A U 0.003015
0 36 A G -0.000110
0 36 A - -0.090385
0 36 C A -0.000006
0 36 C C 0.003049
0 36 C U -0.000005
0 36 C G 0.000008
0 36 C - 0.000532
0 36 U A -0.119232
0 36 U C 0.016233
0 36 U U -0.000034
0 36 U G -0.000019
0 36 U - 0.001006
0 36 G A 0.003772
0 36 G C -0.094520
0 36 G U -0.026483
0 36 G G -0.005128
0 36 G - 0.277686
0 36 - A 0.000141
0 36 - C 0.001605
0 36 - U 0.000002
0 36 - G 0.000005
0 36 - - -0.000007
0 37 A A 0.115052
0 37 A C -0.002381
0 37 A U -0.008883
0 37 A G 0.001230
0 37 A - -0.008388
0 37 C A -0.000010
0 37 C C -0.000004
0 37 C U -0.000003
0 37 C G -0.000004
0 37 C - 0.000136
0 37 U A -0.043104
0 37 U C -0.006012
0 37 U U 0.001556
0 37 U G 0.001840
0 37 U - 0.027509
0 37 G A -0.006006
0 37 G C -0.020204
0 37 G U 0.004847
0 37 G G 0.000169
0 37 G - -0.035199
0 37 - A -0.000010
0 37 - C 0.001470
0 37 - U -0.000000
0 37 - G -0.000005
0 37 - - 0.000003
0 38 A A 0.105666
0 38 A C 0.001469
0 38 A U -0.000011
0 38 A G -0.005721
0 38 A - -0.247673
0 38 C A 0.000034
0 38 C C -0.000003
0 38 C U 0.000005
0 38 C G 0.000005
0 38 C - 0.034811
0 38 U A 0.001280
0 38 U C 0.000140
0 38 U U -0.000009
0 38 U G 0.015465
0 38 U - -0.030429
0 38 G A -0.107134
0 38 G C -0.000070
0 38 G U 0.012033
0 38 G G -0.001506
0 38 G - 0.127472
0 38 - A 0.000005
0 38 - C -0.000006
0 38 - U 0.000005
0 38 - G 0.000686
0 38 - - 0.023591
0 39 A A 0.053727
0 39 A C 0.002670
0 39 A U 0.004020
0 39 A G -0.012891
0 39 A - 0.000670
0 39 C A -0.000004
0 39 C C 0.000075
0 39 C U 0.000052
0 39 C G 0.001174
0 39 C - -0.000000
0 39 U A 0.009969
0 39 U C 0.000229
0 39 U U -0.000003
0 39 U G -0.001233
0 39 U - -0.000000
0 39 G A -0.193805
0 39 G C 0.042349
0 39 G U 0.002079
0 39 G G 0.006375
0 39 G - 0.000548
0 39 - A 0.000004
0 39 - C 0.000007
0 39 - U -0.000006
0 39 - G 0.008711
0 39 - - 0.000009
0 40 A A 0.001711
0 40 A C -0.021058
0 40 A U 0.038985
0 40 A G -0.004412
0 40 A - -0.000003
0 40 C A -0.000003
0 40 C C -0.000009
0 40 C U 0.000004
0 40 C G 0.003923
0 40 C - 0.000005
0 40 U A 0.000957
0 40 U C 0.000454
0 40 U U -0.000176
0 40 U G -0.007055
0 40 U - -0.000004
0 40 G A 0.000875
0 40 G C -0.000153
0 40 G U 0.001227
0 40 G G -0.004334
0 40 G - -0.000988
0 40 - A 0.000005
0 40 - C 0.000007
0 40 - U -0.000004
0 40 - G 0.001505
0 40 - - 0.000004
0 41 A A 0.000230
0 41 A C -0.139605
0 41 A U 0.002330
0 41 A G 0.001195
0 41 A - 0.000003
0 41 C A -0.000004
0 41 C C 0.003084
0 41 C U 0.000073
0 41 C G 0.000005
0 41 C - 0.000005
0 41 U A 0.000375
0 41 U C 0.038689
0 41 U U -0.000262
0 41 U G 0.000003
0 41 U - 0.000010
0 41 G A 0.000361
0 41 G C -0.024866
0 41 G U -0.000664
0 41 G G 0.007017
0 41 G - 0.002028
0 41 - A 0.000005
0 41 - C 0.030883
0 41 - U 0.000344
0 41 - G 0.000005
0 41 - - -0.000000
0 42 A A -0.006736
0 42 A C -0.000011
0 42 A U 0.000011
0 42 A G 0.000798
0 42 A - 0.000067
0 42 C A 0.008425
0 42 C C -0.000002
0 42 C U -0.000002
0 42 C G -0.000002
0 42 C - -0.000002
0 42 U A -0.001195
0 42 U C -0.000004
0 42 U U -0.000002
0 42 U G -0.000002
0 42 U - -0.000002
0 42 G A -0.059543
0 42 G C 0.002900
0 42 G U -0.000003
0 42 G G -0.000018
0 42 G - -0.000004
0 42 - A 0.015223
0 42 - C -0.000002
0 42 - U -0.000002
0 42 - G 0.000004
0 42 - - -0.000002
0 43 A A -0.009041
0 43 A C -0.000810
0 43 A U -0.000001
0 43 A G 0.001875
0 43 A - 0.000002
0 43 C A 0.006548
0 43 C C 0.000005
0 43 C U 0.000009
0 43 C G 0.000009
0 43 C - -0.000006
0 43 U A -0.003911
0 43 U C 0.000223
0 43 U U 0.000009
0 43 U G 0.000004
0 43 U - -0.000001
0 43 G A -0.009739
0 43 G C -0.000239
0 43 G U 0.000327
0 43 G G -0.000009
0 43 G - 0.000217
0 43 - A 0.001566
0 43 - C 0.000044
0 43 - U 0.000009
0 43 - G 0.000009
0 43 - - -0.000009
0 44 A A 0.000866
0 44 A C 0.000001
0 44 A U -0.000006
0 44 A G -0.009307
0 44 A - -0.000001
0 44 C A 0.000004
0 44 C C 0.000004
0 44 C U 0.000004
0 44 C G 0.014933
0 44 C - 0.000004
0 44 U A 0.000430
0 44 U C -0.000004
0 44 U U -0.000007
0 44 U G -0.002021
0 44 U - 0.000004
0 44 G A 0.000478
0 44 G C -0.000004
0 44 G U 0.000000
0 44 G G -0.065779
0 44 G - -0.000004
0 44 - A 0.000004
0 44 - C 0.000004
0 44 - U 0.000004
0 44 - G 0.023998
0 44 - - 0.000007
0 45 A A 0.000712
0 45 A C 0.000003
0 45 A U -0.000000
0 45 A G -0.017039
0 45 A - 0.000000
0 45 C A -0.000010
0 45 C C -0.000010
0 45 C U -0.000010
0 45 C G 0.010683
0 45 C - -0.000010
0 45 U A -0.000010
0 45 U C 0.000942
0 45 U U 0.000207
0 45 U G -0.006635
0 45 U - -0.000008
0 45 G A -0.000010
0 45 G C -0.000009
0 45 G U -0.000004
0 45 G G -0.012825
0 45 G - 0.000008
0 45 - A -0.000009
0 45 - C 0.000003
0 45 - U -0.000010
0 45 - G 0.018961
0 45 - - -0.000010
0 46 A A -0.000004
0 46 A C 0.000001
0 46 A U -0.023111
0 46 A G 0.000003
0 46 A - -0.000002
0 46 C A -0.000000
0 46 C C -0.000000
0 46 C U 0.012115
0 46 C G -0.000000
0 46 C - -0.000000
0 46 U A -0.000006
0 46 U C -0.000003
0 46 U U -0.003635
0 46 U G 0.000586
0 46 U - -0.000006
0 46 G A 0.000001
0 46 G C 0.000008
0 46 G U -0.040049
0 46 G G 0.000009
0 46 G - -0.000009
0 46 - A -0.000000
0 46 - C -0.000000
0 46 - U 0.033512
0 46 - G 0.000003
0 46 - - -0.000000
0 47 A A -0.000007
0 47 A C 0.000010
0 47 A U 0.000002
0 47 A G -0.012955
0 47 A - -0.000007
0 47 C A -0.000005
0 47 C C -0.000005
0 47 C U -0.000005
0 47 C G 0.012396
0 47 C - -0.000005
0 47 U A -0.000001
0 47 U C 0.000006
0 47 U U -0.000005
0 47 U G -0.001698
0 47 U - -0.000003
0 47 G A -0.000001
0 47 G C 0.000006
0 47 G U -0.000004
0 47 G G -0.035445
0 47 G - -0.000005
0 47 - A -0.000005
0 47 - C -0.000005
0 47 - U -0.000004
0 47 - G 0.020964
0 47 - - -0.000005
0 48 A A 0.000849
0 48 A C -0.002207
0 48 A U -0.000008
0 48 A G -0.007314
0 48 A - 0.000301
0 48 C A 0.000004
0 48 C C -0.000011
0 48 C U 0.000004
0 48 C G 0.034356
0 48 C - 0.000004
0 48 U A -0.000007
0 48 U C 0.000591
0 48 U U -0.000008
0 48 U G -0.001318
0 48 U - -0.000006
0 48 G A 0.000010
0 48 G C -0.000447
0 48 G U 0.000453
0 48 G G -0.047020
0 48 G - 0.000002
0 48 - A 0.000005
0 48 - C 0.000008
0 48 - U 0.000004
0 48 - G 0.002174
0 48 - - 0.000004
0 49 A A 0.006052
0 49 A C -0.004146
0 49 A U -0.076736
0 49 A G 0.005829
0 49 A - 0.000007
0 49 C A 0.000163
0 49 C C 0.007577
0 49 C U 0.000903
0 49 C G 0.000006
0 49 C - 0.000010
0 49 U A 0.060094
0 49 U C 0.304516
0 49 U U -0.423931
0 49 U G 0.000010
0 49 U - 0.000003
0 49 G A -0.156051
0 49 G C -0.494785
0 49 G U 0.670348
0 49 G G 0.002030
0 49 G - 0.009180
0 49 - A 0.000726
0 49 - C 0.000009
0 49 - U 0.001749
0 49 - G 0.000010
0 49 - - -0.000001
0 50 A A -0.202089
0 50 A C 0.002425
0 50 A U 0.092438
0 50 A G 0.007416
0 50 A - 0.003135
0 50 C A 0.003120
0 50 C C 0.000047
0 50 C U 0.007370
0 50 C G 0.002492
0 50 C - 0.000010
0 50 U A 0.029923
0 50 U C 0.000737
0 50 U U -0.560470
0 50 U G 0.371331
0 50 U - 0.000013
0 50 G A 0.111490
0 50 G C -0.001533
0 50 G U 0.009250
0 50 G G -0.069603
0 50 G - 0.042875
0 50 - A 0.000009
0 50 - C 0.001264
0 50 - U 0.008320
0 50 - G 0.000005
0 50 - - 0.000010
0 51 A A -0.032327
0 51 A C 0.106083
0 51 A U 0.004135
0 51 A G -0.138403
0 51 A - 0.004495
0 51 C A 0.001157
0 51 C C 0.000004
0 51 C U 0.000600
0 51 C G 0.000004
0 51 C - -0.000005
0 51 U A 0.011670
0 51 U C -0.134219
0 51 U U -0.373897
0 51 U G 0.282114
0 51 U - 0.000950
0 51 G A -0.011249
0 51 G C 0.001724
0 51 G U 0.236076
0 51 G G -0.009307
0 51 G - -0.000007
0 51 - A 0.000002
0 51 - C 0.000954
0 51 - U 0.000212
0 51 - G 0.000642
0 51 - - 0.000010
0 52 A A 0.000002
0 52 A C -0.000003
0 52 A U 0.003670
0 52 A G 0.000003
0 52 A - -0.026536
0 52 C A -0.000010
0 52 C C -0.000001
0 52 C U -0.000001
0 52 C G -0.000001
0 52 C - 0.080771
0 52 U A 0.000879
0 52 U C -0.000006
0 52 U U 0.000006
0 52 U G 0.000459
0 52 U - -0.002909
0 52 G A 0.000002
0 52 G C 0.000522
0 52 G U 0.000006
0 52 G G -0.000002
0 52 G - -0.151853
0 52 - A -0.000001
0 52 - C -0.000001
0 52 - U 0.000011
0 52 - G 0.000640
0 52 - - 0.046433
0 53 A A -0.000003
0 53 A C 0.000198
0 53 A U 0.000843
0 53 A G 0.000811
0 53 A - -0.020365
0 53 C A -0.000005
0 53 C C 0.000003
0 53 C U 0.000003
0 53 C G 0.000003
0 53 C - 0.025209
0 53 U A -0.000100
0 53 U C 0.000002
0 53 U U 0.000003
0 53 U G 0.000004
0 53 U - -0.000310
0 53 G A -0.000917
0 53 G C -0.000005
0 53 G U -0.000007
0 53 G G -0.000001
0 53 G - -0.026037
0 53 - A -0.000002
0 53 - C 0.000545
0 53 - U 0.000002
0 53 - G 0.000003
0 53 - - 0.011219
0 54 A A -0.000009
0 54 A C 0.000737
0 54 A U 0.000042
0 54 A G 0.000777
0 54 A - -0.078499
0 54 C A -0.000010
0 54 C C -0.000000
0 54 C U -0.000000
0 54 C G -0.000000
0 54 C - 0.045004
0 54 U A -0.000011
0 54 U C 0.000010
0 54 U U -0.000005
0 54 U G 0.000069
0 54 U - -0.001120
0 54 G A 0.000995
0 54 G C 0.000605
0 54 G U 0.000004
0 54 G G -0.000002
0 54 G - -0.009363
0 54 - A -0.000007
0 54 - C -0.000000
0 54 - U -0.000000
0 54 - G -0.000000
0 54 - - 0.019015
0 55 A A -0.009966
0 55 A C 0.000056
0 55 A U -0.002022
0 55 A G 0.002776
0 55 A - 0.012076
0 55 C A 0.000885
0 55 C C 0.000099
0 55 C U -0.000003
0 55 C G -0.000000
0 55 C - 0.000001
0 55 U A -0.083138
0 55 U C 0.169761
0 55 U U -0.001350
0 55 U G 0.013760
0 55 U - 0.000656
0 55 G A 0.150397
0 55 G C -0.295045
0 55 G U -0.001618
0 55 G G -0.002165
0 55 G - 0.008175
0 55 - A 0.000608
0 55 - C 0.000009
0 55 - U 0.001156
0 55 - G -0.000002
0 55 - - -0.000008
0 56 A A -0.016040
0 56 A C 0.002778
0 56 A U 0.005371
0 56 A G 0.001247
0 56 A - 0.000128
0 56 C A 0.000010
0 56 C C -0.000007
0 56 C U 0.000008
0 56 C G 0.000768
0 56 C - -0.000005
0 56 U A 0.116583
0 56 U C -0.012697
0 56 U U -0.020844
0 56 U G 0.042149
0 56 U - -0.000016
0 56 G A -0.184036
0 56 G C 0.008672
0 56 G U 0.087046
0 56 G G -0.077188
0 56 G - 0.000005
0 56 - A 0.001226
0 56 - C 0.000001
0 56 - U -0.000001
0 56 - G -0.000006
0 56 - - 0.000631
0 57 A A 0.015833
0 57 A C 0.001665
0 57 A U 0.000959
0 57 A G -0.030603
0 57 A - 0.001952
0 57 C A -0.000008
0 57 C C -0.000004
0 57 C U 0.000943
0 57 C G 0.000002
0 57 C - 0.000007
0 57 U A 0.006366
0 57 U C 0.001169
0 57 U U -0.109395
0 57 U G 0.297720
0 57 U - -0.217222
0 57 G A -0.213241
0 57 G C -0.003161
0 57 G U 0.084757
0 57 G G -0.022868
0 57 G - 0.164066
0 57 - A 0.001076
0 57 - C 0.000009
0 57 - U 0.000004
0 57 - G 0.000010
0 57 - - 0.000564
0 58 A A -0.006523
0 58 A C -0.000244
0 58 A U -0.000537
0 58 A G -0.007011
0 58 A - 0.036312
0 58 C A -0.000002
0 58 C C 0.000002
0 58 C U 0.001178
0 58 C G 0.000005
0 58 C - -0.000003
0 58 U A 0.003947
0 58 U C -0.000092
0 58 U U -0.000003
0 58 U G -0.000348
0 58 U - 0.001336
0 58 G A 0.007183
0 58 G C -0.002415
0 58 G U 0.002278
0 58 G G 0.066761
0 58 G - -0.156005
0 58 - A 0.000251
0 58 - C 0.000008
0 58 - U -0.000001
0 58 - G 0.000963
0 58 - - 0.000637
0 59 A A 0.002033
0 59 A C -0.000095
0 59 A U 0.000522
0 59 A G -0.000251
0 59 A - -0.010019
0 59 C A -0.000006
0 59 C C -0.000006
0 59 C U 0.000133
0 59 C G 0.000012
0 59 C - 0.011547
0 59 U A 0.000075
0 59 U C 0.000648
0 59 U U -0.000005
0 59 U G 0.000003
0 59 U - -0.302917
0 59 G A 0.000581
0 59 G C -0.000204
0 59 G U 0.000037
0 59 G G 0.000904
0 59 G - 0.197229
0 59 - A -0.000006
0 59 - C 0.000972
0 59 - U -0.000006
0 59 - G -0.000006
0 59 - - 0.020758
0 60 A A -0.000019
0 60 A C 0.009210
0 60 A U 0.000008
0 60 A G -0.021625
0 60 A - 0.002958
0 60 C A 0.000002
0 60 C C -0.000002
0 60 C U -0.000002
0 60 C G 0.000009
0 60 C - 0.007595
0 60 U A 0.000705
0 60 U C 0.000003
0 60 U U 0.000001
0 60 U G 0.000618
0 60 U - -0.145366
0 60 G A -0.000095
0 60 G C 0.001522
0 60 G U 0.000760
0 60 G G 0.000737
0 60 G - 0.003765
0 60 - A 0.000003
0 60 - C 0.000793
0 60 - U 0.000987
0 60 - G 0.000005
0 60 - - 0.020466
0 61 A A -0.000009
0 61 A C -0.002016
0 61 A U -0.000208
0 61 A G -0.039882
0 61 A - 0.244937
0 61 C A 0.000005
0 61 C C 0.000861
0 61 C U 0.000005
0 61 C G 0.000007
0 61 C - 0.000004
0 61 U A 0.000633
0 61 U C -0.000105
0 61 U U 0.000507
0 61 U G 0.164688
0 61 U - -0.350896
0 61 G A -0.000223
0 61 G C 0.153385
0 61 G U 0.000873
0 61 G G -0.175003
0 61 G - -0.004291
0 61 - A 0.000005
0 61 - C 0.001003
0 61 - U 0.000005
0 61 - G 0.000003
0 61 - - 0.000540
0 62 A A -0.002314
0 62 A C 0.000034
0 62 A U -0.142597
0 62 A G -0.021562
0 62 A - 0.283713
0 62 C A 0.000006
0 62 C C 0.000001
0 62 C U 0.000004
0 62 C G 0.000683
0 62 C - -0.000012
0 62 U A 0.000551
0 62 U C 0.001508
0 62 U U -0.000057
0 62 U G -0.000253
0 62 U - -0.019123
0 62 G A -0.015540
0 62 G C -0.146060
0 62 G U 0.173269
0 62 G G 0.000982
0 62 G - -0.087865
0 62 - A 0.000950
0 62 - C -0.000001
0 62 - U -0.000005
0 62 - G 0.000008
0 62 - - 0.000457
0 63 A A 0.106670
0 63 A C 0.000717
0 63 A U 0.001111
0 63 A G -0.110935
0 63 A - 0.001768
0 63 C A 0.002143
0 63 C C 0.000224
0 63 C U -0.000005
0 63 C G 0.004390
0 63 C - -0.000001
0 63 U A -0.227331
0 63 U C 0.001434
0 63 U U 0.015738
0 63 U G 0.061899
0 63 U - 0.005184
0 63 G A 0.027227
0 63 G C 0.001181
0 63 G U -0.002122
0 63 G G 0.000265
0 63 G - 0.003965
0 63 - A -0.000004
0 63 - C 0.000011
0 63 - U -0.000005
0 63 - G 0.005798
0 63 - - 0.000746
0 64 A A -0.178316
0 64 A C 0.004626
0 64 A U -0.000746
0 64 A G -0.004671
0 64 A - 0.004987
0 64 C A 0.000007
0 64 C C 0.000008
0 64 C U 0.000005
0 64 C G 0.004819
0 64 C - 0.000008
0 64 U A 0.026370
0 64 U C 0.000406
0 64 U U 0.000239
0 64 U G 0.001264
0 64 U - 0.000884
0 64 G A 0.145973
0 64 G C -0.070760
0 64 G U 0.002039
0 64 G G -0.000308
0 64 G - 0.001695
0 64 - A 0.000252
0 64 - C 0.000659
0 64 - U 0.000006
0 64 - G 0.000969
0 64 - - 0.000012
0 65 A A -0.001836
0 65 A C -0.002800
0 65 A U 0.000513
0 65 A G 0.001412
0 65 A - 0.033557
0 65 C A 0.000008
0 65 C C 0.000002
0 65 C U -0.000001
0 65 C G 0.025233
0 65 C - -0.000001
0 65 U A 0.004855
0 65 U C 0.341061
0 65 U U 0.000944
0 65 U G -0.005600
0 65 U - 0.000597
0 65 G A 0.091734
0 65 G C -0.600422
0 65 G U -0.000014
0 65 G G 0.004389
0 65 G - 0.000622
0 65 - A 0.000764
0 65 - C 0.000003
0 65 - U -0.000001
0 65 - G 0.001927
0 65 - - -0.000003
0 66 A A -0.000118
0 66 A C -0.000001
0 66 A U -0.000008
0 66 A G -0.007597
0 66 A - 0.002338
0 66 C A 0.000004
0 66 C C 0.000004