# NB_STEPS 3000
# UP_FREQ 1000
# TEMP 1.000000
# LAMBDA 0.010000
# ID_THRES 1.000000
# ALPHA 1.736706
0 0 A A -0.000699
0 0 C C 0.000932
0 0 U U -0.006922
0 0 G G -0.002503
0 0 - - 0.013817
0 1 A A 0.060248
0 1 A C 0.028408
0 1 A U -0.005949
0 1 A G -0.151284
0 1 A - 0.007803
0 1 C A 0.080767
0 1 C C 0.000158
0 1 C U 0.002694
0 1 C G 0.000327
0 1 C - 0.000010
0 1 U A -0.036111
0 1 U C 0.000712
0 1 U U -0.003635
0 1 U G 0.292578
0 1 U - 0.002878
0 1 G A -0.444728
0 1 G C -0.000000
0 1 G U 0.082832
0 1 G G -0.000014
0 1 G - 0.000009
0 1 - A 0.003051
0 1 - C 0.000006
0 1 - U 0.000002
0 1 - G 0.000011
0 1 - - 0.000002
0 2 A A -0.067094
0 2 A C 0.007289
0 2 A U -0.004059
0 2 A G 0.014725
0 2 A - -0.000109
0 2 C A 0.182591
0 2 C C -0.000009
0 2 C U -0.211195
0 2 C G 0.016188
0 2 C - -0.000009
0 2 U A -0.017144
0 2 U C 0.012127
0 2 U U 0.001758
0 2 U G -0.002365
0 2 U - 0.002321
0 2 G A 0.006077
0 2 G C 0.000577
0 2 G U 0.000325
0 2 G G 0.000882
0 2 G - 0.000319
0 2 - A 0.002077
0 2 - C 0.000006
0 2 - U -0.000003
0 2 - G -0.000004
0 2 - - 0.000006
0 3 A A 0.009875
0 3 A C 0.000344
0 3 A U -0.092370
0 3 A G 0.016057
0 3 A - 0.000002
0 3 C A 0.101563
0 3 C C 0.000007
0 3 C U 0.013922
0 3 C G -0.276021
0 3 C - -0.000009
0 3 U A -0.040086
0 3 U C 0.005630
0 3 U U -0.002339
0 3 U G 0.000572
0 3 U - 0.004968
0 3 G A -0.000556
0 3 G C 0.000397
0 3 G U -0.001096
0 3 G G 0.169161
0 3 G - -0.000002
0 3 - A 0.000000
0 3 - C 0.000007
0 3 - U -0.000004
0 3 - G 0.002774
0 3 - - -0.000003
0 4 A A -0.016437
0 4 A C 0.000001
0 4 A U -0.000356
0 4 A G 0.000414
0 4 A - 0.001849
0 4 C A 0.013084
0 4 C C 0.000011
0 4 C U 0.000005
0 4 C G -0.030185
0 4 C - 0.000000
0 4 U A -0.048240
0 4 U C -0.000001
0 4 U U 0.015523
0 4 U G -0.004772
0 4 U - 0.000557
0 4 G A 0.000891
0 4 G C -0.000013
0 4 G U -0.000004
0 4 G G 0.018921
0 4 G - 0.000002
0 4 - A -0.000007
0 4 - C 0.000009
0 4 - U -0.000006
0 4 - G 0.007126
0 4 - - 0.000009
0 5 A A 0.095487
0 5 A C 0.000654
0 5 A U 0.000858
0 5 A G -0.321332
0 5 A - 0.033428
0 5 C A 0.000685
0 5 C C 0.000556
0 5 C U -0.000001
0 5 C G 0.001453
0 5 C - 0.000143
0 5 U A -0.097944
0 5 U C 0.018856
0 5 U U 0.002202
0 5 U G 0.001674
0 5 U - 0.000011
0 5 G A 0.000000
0 5 G C 0.000507
0 5 G U 0.000000
0 5 G G 0.055556
0 5 G - 0.000000
0 5 - A 0.000285
0 5 - C -0.000000
0 5 - U 0.000006
0 5 - G 0.080754
0 5 - - 0.000010
0 6 A A -0.188476
0 6 A C -0.000003
0 6 A U -0.000000
0 6 A G 0.075505
0 6 A - 0.012292
0 6 C A -0.003776
0 6 C C 0.000001
0 6 C U 0.000788
0 6 C G 0.018303
0 6 C - 0.000008
0 6 U A 0.011941
0 6 U C 0.001288
0 6 U U 0.027801
0 6 U G -0.035703
0 6 U - -0.094034
0 6 G A 0.077792
0 6 G C 0.000007
0 6 G U -0.000008
0 6 G G -0.075761
0 6 G - 0.005514
0 6 - A 0.082339
0 6 - C 0.000203
0 6 - U 0.000009
0 6 - G 0.000010
0 6 - - 0.000005
0 7 A A -0.008037
0 7 A C 0.000861
0 7 A U 0.007213
0 7 A G 0.002157
0 7 A - 0.001906
0 7 C A 0.005621
0 7 C C -0.000005
0 7 C U 0.000186
0 7 C G -0.189016
0 7 C - 0.000005
0 7 U A -0.027722
0 7 U C 0.002680
0 7 U U -0.006542
0 7 U G 0.118561
0 7 U - 0.002434
0 7 G A -0.002012
0 7 G C 0.023044
0 7 G U -0.003268
0 7 G G 0.005279
0 7 G - -0.000002
0 7 - A 0.007211
0 7 - C 0.000002
0 7 - U 0.000004
0 7 - G 0.000006
0 7 - - 0.000006
0 8 A A 0.040228
0 8 A C 0.003375
0 8 A U 0.002200
0 8 A G -0.026108
0 8 A - 0.001964
0 8 C A 0.019762
0 8 C C -0.000001
0 8 C U -0.000010
0 8 C G 0.000618
0 8 C - -0.000001
0 8 U A -0.111518
0 8 U C -0.000000
0 8 U U 0.000145
0 8 U G -0.000693
0 8 U - -0.000001
0 8 G A -0.019419
0 8 G C 0.000008
0 8 G U 0.000504
0 8 G G 0.023047
0 8 G - -0.000001
0 8 - A 0.001068
0 8 - C -0.000001
0 8 - U -0.000001
0 8 - G 0.003356
0 8 - - -0.000001
0 9 A A -0.000018
0 9 A C 0.002018
0 9 A U -0.010164
0 9 A G 0.003839
0 9 A - -0.000003
0 9 C A -0.000004
0 9 C C 0.001308
0 9 C U -0.000006
0 9 C G 0.000010
0 9 C - 0.000008
0 9 U A 0.000990
0 9 U C 0.000783
0 9 U U -0.122509
0 9 U G 0.000009
0 9 U - 0.000006
0 9 G A 0.000334
0 9 G C -0.001572
0 9 G U 0.005852
0 9 G G 0.000010
0 9 G - 0.000008
0 9 - A 0.000008
0 9 - C 0.051709
0 9 - U -0.000007
0 9 - G 0.000003
0 9 - - 0.000008
0 10 A A 0.000496
0 10 A C 0.003237
0 10 A U -0.010398
0 10 A G -0.006473
0 10 A - 0.000011
0 10 C A 0.002384
0 10 C C -0.000001
0 10 C U -0.000184
0 10 C G 0.000099
0 10 C - -0.000006
0 10 U A -0.000703
0 10 U C -0.000006
0 10 U U -0.003623
0 10 U G 0.000743
0 10 U - 0.000517
0 10 G A -0.024631
0 10 G C 0.000009
0 10 G U 0.007353
0 10 G G -0.000360
0 10 G - 0.000862
0 10 - A -0.000004
0 10 - C 0.000008
0 10 - U 0.000007
0 10 - G 0.001236
0 10 - - -0.000007
0 11 A A -0.058403
0 11 A C 0.000502
0 11 A U -0.005500
0 11 A G 0.060407
0 11 A - 0.000012
0 11 C A 0.000363
0 11 C C 0.000005
0 11 C U 0.001304
0 11 C G 0.001409
0 11 C - -0.000007
0 11 U A 0.122969
0 11 U C 0.000845
0 11 U U 0.000648
0 11 U G -0.212786
0 11 U - 0.000905
0 11 G A -0.004392
0 11 G C 0.000005
0 11 G U 0.000789
0 11 G G 0.002189
0 11 G - 0.000191
0 11 - A 0.014509
0 11 - C -0.000003
0 11 - U 0.000008
0 11 - G 0.000002
0 11 - - -0.000003
0 12 A A -0.011343
0 12 A C 0.001230
0 12 A U 0.005076
0 12 A G 0.001944
0 12 A - -0.000007
0 12 C A -0.000008
0 12 C C 0.000006
0 12 C U 0.003041
0 12 C G -0.000002
0 12 C - 0.000005
0 12 U A -0.085041
0 12 U C 0.001498
0 12 U U -0.008640
0 12 U G 0.023213
0 12 U - 0.000006
0 12 G A 0.047962
0 12 G C 0.000004
0 12 G U -0.028933
0 12 G G -0.000001
0 12 G - 0.000010
0 12 - A -0.000008
0 12 - C -0.000001
0 12 - U 0.009465
0 12 - G 0.000006
0 12 - - 0.000003
0 13 A A -0.000005
0 13 A C 0.000454
0 13 A U -0.000001
0 13 A G -0.003155
0 13 A - 0.000002
0 13 C A 0.000007
0 13 C C 0.000002
0 13 C U 0.000007
0 13 C G 0.000152
0 13 C - 0.000000
0 13 U A 0.000008
0 13 U C 0.000676
0 13 U U -0.000008
0 13 U G -0.035583
0 13 U - -0.000002
0 13 G A -0.000009
0 13 G C 0.000000
0 13 G U 0.000000
0 13 G G -0.002348
0 13 G - 0.000008
0 13 - A 0.000000
0 13 - C 0.000000
0 13 - U 0.000000
0 13 - G 0.041599
0 13 - - 0.000000
0 14 A A -0.006380
0 14 A C 0.000005
0 14 A U 0.000004
0 14 A G -0.000001
0 14 A - -0.000009
0 14 C A 0.001261
0 14 C C 0.000009
0 14 C U 0.000009
0 14 C G 0.000009
0 14 C - 0.000009
0 14 U A -0.045856
0 14 U C 0.000010
0 14 U U -0.000003
0 14 U G 0.000007
0 14 U - 0.000852
0 14 G A -0.003233
0 14 G C 0.000006
0 14 G U 0.000010
0 14 G G 0.000009
0 14 G - -0.000005
0 14 - A 0.040194
0 14 - C 0.000009
0 14 - U 0.000009
0 14 - G -0.000006
0 14 - - 0.000009
0 15 A A -0.096525
0 15 A C 0.001400
0 15 A U 0.040343
0 15 A G -0.000070
0 15 A - 0.000002
0 15 C A -0.003070
0 15 C C 0.000001
0 15 C U 0.038560
0 15 C G 0.001175
0 15 C - 0.000001
0 15 U A 0.075994
0 15 U C -0.001050
0 15 U U -0.009422
0 15 U G 0.000385
0 15 U - -0.000004
0 15 G A 0.004300
0 15 G C 0.000008
0 15 G U -0.107177
0 15 G G -0.000008
0 15 G - -0.000005
0 15 - A 0.004555
0 15 - C 0.000006
0 15 - U 0.000009
0 15 - G 0.000005
0 15 - - -0.000008
0 16 A A -0.001512
0 16 A C 0.000606
0 16 A U -0.114440
0 16 A G 0.166027
0 16 A - 0.000005
0 16 C A -0.000114
0 16 C C 0.007865
0 16 C U 0.000000
0 16 C G 0.001564
0 16 C - -0.000009
0 16 U A -0.015188
0 16 U C 0.027335
0 16 U U 0.004759
0 16 U G -0.065331
0 16 U - 0.000584
0 16 G A 0.044877
0 16 G C -0.075123
0 16 G U 0.000413
0 16 G G -0.003262
0 16 G - 0.000000
0 16 - A 0.000586
0 16 - C -0.000004
0 16 - U -0.000004
0 16 - G 0.000753
0 16 - - -0.000006
0 17 A A -0.039398
0 17 A C -0.003573
0 17 A U 0.066883
0 17 A G 0.006033
0 17 A - 0.003763
0 17 C A 0.003678
0 17 C C -0.000008
0 17 C U 0.000588
0 17 C G -0.000005
0 17 C - -0.000002
0 17 U A 0.011451
0 17 U C -0.000466
0 17 U U -0.129735
0 17 U G 0.000760
0 17 U - 0.000325
0 17 G A 0.003686
0 17 G C 0.002540
0 17 G U -0.002642
0 17 G G -0.000387
0 17 G - 0.000012
0 17 - A 0.000009
0 17 - C -0.000006
0 17 - U 0.002590
0 17 - G 0.000006
0 17 - - -0.000002
0 18 A A 0.000808
0 18 A C 0.014356
0 18 A U -0.002815
0 18 A G -0.002830
0 18 A - 0.000006
0 18 C A -0.002640
0 18 C C -0.000002
0 18 C U 0.000005
0 18 C G -0.000016
0 18 C - 0.000011
0 18 U A -0.004231
0 18 U C -0.059256
0 18 U U 0.009204
0 18 U G -0.000341
0 18 U - 0.001353
0 18 G A 0.016230
0 18 G C 0.006051
0 18 G U -0.013134
0 18 G G -0.000857
0 18 G - -0.000008
0 18 - A 0.000627
0 18 - C 0.000000
0 18 - U 0.000002
0 18 - G 0.000919
0 18 - - -0.000008
0 19 A A -0.021247
0 19 A C 0.017922
0 19 A U -0.005118
0 19 A G 0.001842
0 19 A - 0.003072
0 19 C A 0.000819
0 19 C C 0.001524
0 19 C U -0.031723
0 19 C G 0.000008
0 19 C - -0.000006
0 19 U A 0.002814
0 19 U C -0.054329
0 19 U U 0.004375
0 19 U G 0.003117
0 19 U - 0.000007
0 19 G A -0.000002
0 19 G C 0.003374
0 19 G U -0.000079
0 19 G G 0.000005
0 19 G - -0.000004
0 19 - A 0.000010
0 19 - C 0.000003
0 19 - U 0.012252
0 19 - G 0.000002
0 19 - - -0.000006
0 20 A A 0.010233
0 20 A C 0.019634
0 20 A U -0.011375
0 20 A G -0.047295
0 20 A - 0.001502
0 20 C A -0.000099
0 20 C C -0.000001
0 20 C U 0.002385
0 20 C G 0.001303
0 20 C - 0.000008
0 20 U A -0.429190
0 20 U C 0.002042
0 20 U U 0.367386
0 20 U G -0.002822
0 20 U - 0.014242
0 20 G A 0.122212
0 20 G C 0.002751
0 20 G U -0.149752
0 20 G G 0.013014
0 20 G - -0.000001
0 20 - A 0.002870
0 20 - C -0.000001
0 20 - U 0.000043
0 20 - G 0.000002
0 20 - - 0.000000
0 21 A A 0.002940
0 21 A C -0.008700
0 21 A U 0.001179
0 21 A G -0.002060
0 21 A - 0.000902
0 21 C A -0.012095
0 21 C C 0.002583
0 21 C U 0.001283
0 21 C G 0.000104
0 21 C - 0.000002
0 21 U A -0.007129
0 21 U C 0.011674
0 21 U U -0.021863
0 21 U G 0.001528
0 21 U - 0.000010
0 21 G A 0.001056
0 21 G C -0.000472
0 21 G U -0.001210
0 21 G G -0.000037
0 21 G - 0.000749
0 21 - A 0.000008
0 21 - C 0.000010
0 21 - U 0.000007
0 21 - G 0.000607
0 21 - - -0.000001
0 22 A A -0.053420
0 22 A C 0.000613
0 22 A U 0.063085
0 22 A G -0.004461
0 22 A - 0.000305
0 22 C A -0.000008
0 22 C C 0.004223
0 22 C U -0.031230
0 22 C G 0.000346
0 22 C - 0.000738
0 22 U A -0.003935
0 22 U C 0.007604
0 22 U U -0.045084
0 22 U G 0.000852
0 22 U - 0.000003
0 22 G A 0.065639
0 22 G C -0.005223
0 22 G U -0.001460
0 22 G G -0.000014
0 22 G - -0.000009
0 22 - A 0.000009
0 22 - C -0.000009
0 22 - U 0.000762
0 22 - G 0.000005
0 22 - - 0.000002
0 23 A A -0.000013
0 23 A C 0.013713
0 23 A U -0.020245
0 23 A G 0.000986
0 23 A - 0.001026
0 23 C A -0.000003
0 23 C C -0.031864
0 23 C U 0.019000
0 23 C G 0.000642
0 23 C - 0.000005
0 23 U A 0.001264
0 23 U C -0.016616
0 23 U U -0.025173
0 23 U G 0.000008
0 23 U - 0.000478
0 23 G A -0.000011
0 23 G C 0.015194
0 23 G U 0.000140
0 23 G G 0.000011
0 23 G - 0.000849
0 23 - A -0.000001
0 23 - C 0.004818
0 23 - U 0.000001
0 23 - G -0.000006
0 23 - - 0.000005
0 24 A A -0.159786
0 24 A C 0.079293
0 24 A U 0.021719
0 24 A G -0.000007
0 24 A - 0.003915
0 24 C A 0.001943
0 24 C C 0.000917
0 24 C U -0.000457
0 24 C G 0.000801
0 24 C - 0.000009
0 24 U A 0.145217
0 24 U C -0.263134
0 24 U U -0.010843
0 24 U G 0.006512
0 24 U - 0.000793
0 24 G A 0.000274
0 24 G C 0.002417
0 24 G U -0.000566
0 24 G G 0.000007
0 24 G - 0.000006
0 24 - A 0.000010
0 24 - C 0.000365
0 24 - U 0.061646
0 24 - G 0.000001
0 24 - - 0.000009
0 25 A A 0.000173
0 25 A C 0.001768
0 25 A U -0.078832
0 25 A G -0.000150
0 25 A - 0.001520
0 25 C A 0.037094
0 25 C C -0.000533
0 25 C U 0.061757
0 25 C G -0.052453
0 25 C - 0.000010
0 25 U A -0.099239
0 25 U C 0.014218
0 25 U U 0.000919
0 25 U G -0.018628
0 25 U - 0.002950
0 25 G A 0.000500
0 25 G C 0.001463
0 25 G U -0.004799
0 25 G G 0.084630
0 25 G - 0.000223
0 25 - A 0.000659
0 25 - C -0.000000
0 25 - U -0.000008
0 25 - G 0.000944
0 25 - - -0.000006
0 26 A A -0.001170
0 26 A C 0.653062
0 26 A U -0.006817
0 26 A G 0.000781
0 26 A - -0.306163
0 26 C A 0.000194
0 26 C C -0.302383
0 26 C U 0.013012
0 26 C G -0.000002
0 26 C - -0.000005
0 26 U A 0.002677
0 26 U C 0.000941
0 26 U U -0.131661
0 26 U G 0.000002
0 26 U - 0.002530
0 26 G A -0.000052
0 26 G C -0.000009
0 26 G U 0.001224
0 26 G G -0.000007
0 26 G - 0.000005
0 26 - A 0.000001
0 26 - C 0.000006
0 26 - U 0.017304
0 26 - G 0.000672
0 26 - - 0.000012
0 27 A A -0.013744
0 27 A C 0.007563
0 27 A U 0.009821
0 27 A G 0.000003
0 27 A - 0.000006
0 27 C A 0.002491
0 27 C C 0.000957
0 27 C U -0.000001
0 27 C G 0.000010
0 27 C - 0.000002
0 27 U A 0.004660
0 27 U C 0.000006
0 27 U U -0.191719
0 27 U G 0.001458
0 27 U - 0.002086
0 27 G A -0.068924
0 27 G C 0.000780
0 27 G U 0.018850
0 27 G G 0.000009
0 27 G - 0.000915
0 27 - A 0.118592
0 27 - C 0.000007
0 27 - U -0.000004
0 27 - G -0.000001
0 27 - - 0.000006
0 28 A A 0.218057
0 28 A C -0.000350
0 28 A U -0.310108
0 28 A G 0.000499
0 28 A - 0.000004
0 28 C A 0.001168
0 28 C C 0.000797
0 28 C U 0.000504
0 28 C G 0.000742
0 28 C - -0.000007
0 28 U A -0.027938
0 28 U C -0.094667
0 28 U U 0.119219
0 28 U G 0.000001
0 28 U - 0.000803
0 28 G A -0.042229
0 28 G C 0.073040
0 28 G U -0.011436
0 28 G G 0.000678
0 28 G - -0.000001
0 28 - A -0.000005
0 28 - C 0.000008
0 28 - U 0.020361
0 28 - G -0.000007
0 28 - - 0.000009
0 29 A A -0.008654
0 29 A C 0.215823
0 29 A U 0.145628
0 29 A G -0.373480
0 29 A - 0.003027
0 29 C A 0.001242
0 29 C C -0.000536
0 29 C U 0.006753
0 29 C G 0.000758
0 29 C - 0.000007
0 29 U A 0.011323
0 29 U C -0.111944
0 29 U U -0.029260
0 29 U G 0.133045
0 29 U - 0.002612
0 29 G A 0.028781
0 29 G C -0.001059
0 29 G U -0.108529
0 29 G G 0.000601
0 29 G - -0.000006
0 29 - A 0.000006
0 29 - C 0.001720
0 29 - U 0.000724
0 29 - G -0.000001
0 29 - - -0.000002
0 30 A A 0.000679
0 30 A C 0.000279
0 30 A U -0.000101
0 30 A G 0.000001
0 30 A - 0.000012
0 30 C A -0.000007
0 30 C C -0.000004
0 30 C U 0.001533
0 30 C G -0.000003
0 30 C - -0.000004
0 30 U A -0.000006
0 30 U C 0.000006
0 30 U U -0.104724
0 30 U G 0.000109
0 30 U - 0.000708
0 30 G A 0.000002
0 30 G C -0.000012
0 30 G U 0.002235
0 30 G G -0.000006
0 30 G - -0.000003
0 30 - A -0.000003
0 30 - C -0.000003
0 30 - U 0.053186
0 30 - G 0.000007
0 30 - - -0.000003
0 31 A A -0.000009
0 31 A C -0.000009
0 31 A U 0.000005
0 31 A G -0.037959
0 31 A - 0.000005
0 31 C A 0.000002
0 31 C C 0.000002
0 31 C U -0.000003
0 31 C G 0.001071
0 31 C - -0.000001
0 31 U A -0.000006
0 31 U C 0.000003
0 31 U U -0.000003
0 31 U G -0.010943
0 31 U - 0.000002
0 31 G A -0.000001
0 31 G C 0.000006
0 31 G U 0.000007
0 31 G G -0.002516
0 31 G - 0.000002
0 31 - A 0.000002
0 31 - C 0.000002
0 31 - U 0.000002
0 31 - G 0.055865
0 31 - - 0.000004
0 32 A A 0.000003
0 32 A C 0.000008
0 32 A U -0.000008
0 32 A G -0.029547
0 32 A - 0.000001
0 32 C A 0.000007
0 32 C C -0.000008
0 32 C U -0.000008
0 32 C G 0.001286
0 32 C - -0.000008
0 32 U A -0.000008
0 32 U C 0.000240
0 32 U U 0.000006
0 32 U G -0.003070
0 32 U - 0.000004
0 32 G A -0.000008
0 32 G C 0.000435
0 32 G U -0.000008
0 32 G G -0.003233
0 32 G - -0.000008
0 32 - A -0.000008
0 32 - C -0.000008
0 32 - U 0.000002
0 32 - G 0.018015
0 32 - - -0.000005
0 33 A A 0.000495
0 33 A C 0.000000
0 33 A U 0.024971
0 33 A G -0.029154
0 33 A - 0.000010
0 33 C A 0.000875
0 33 C C 0.000012
0 33 C U -0.000002
0 33 C G 0.007075
0 33 C - -0.000004
0 33 U A 0.001200
0 33 U C 0.000004
0 33 U U -0.084130
0 33 U G 0.002515
0 33 U - 0.000006
0 33 G A 0.000277
0 33 G C 0.000306
0 33 G U -0.000007
0 33 G G -0.040462
0 33 G - -0.000003
0 33 - A 0.000005
0 33 - C 0.000005
0 33 - U 0.000005
0 33 - G 0.053800
0 33 - - 0.000001
0 34 A A 0.000600
0 34 A C 0.000171
0 34 A U -0.015222
0 34 A G -0.000005
0 34 A - 0.001335
0 34 C A 0.000009
0 34 C C 0.000868
0 34 C U 0.000005
0 34 C G -0.000009
0 34 C - 0.000008
0 34 U A -0.000005
0 34 U C -0.060383
0 34 U U -0.000012
0 34 U G 0.000008
0 34 U - -0.000001
0 34 G A 0.000005
0 34 G C -0.003812
0 34 G U -0.000007
0 34 G G -0.000007
0 34 G - -0.000006
0 34 - A 0.000005
0 34 - C 0.076383
0 34 - U -0.000009
0 34 - G 0.000005
0 34 - - 0.000005
0 35 A A -0.040087
0 35 A C 0.000523
0 35 A U -0.000000
0 35 A G 0.003296
0 35 A - 0.000001
0 35 C A 0.002913
0 35 C C -0.000008
0 35 C U -0.000008
0 35 C G -0.000003
0 35 C - 0.000004
0 35 U A 0.002780
0 35 U C 0.000420
0 35 U U 0.000151
0 35 U G -0.025856
0 35 U - 0.000009
0 35 G A -0.004586
0 35 G C 0.000001
0 35 G U -0.000002
0 35 G G 0.000937
0 35 G - -0.000000
0 35 - A 0.027232
0 35 - C -0.000002
0 35 - U -0.000007
0 35 - G -0.000008
0 35 - - -0.000002
0 36 A A 0.001588
0 36 A C -0.164158
0 36 A U 0.146118
0 36 A G 0.000771
0 36 A - 0.000299
0 36 C A 0.000000
0 36 C C -0.000098
0 36 C U 0.009536
0 36 C G 0.000000
0 36 C - 0.000775
0 36 U A 0.000011
0 36 U C 0.024811
0 36 U U -0.156464
0 36 U G 0.001833
0 36 U - 0.000728
0 36 G A 0.000878
0 36 G C 0.000401
0 36 G U -0.000311
0 36 G G 0.000001
0 36 G - 0.000709
0 36 - A 0.000000
0 36 - C 0.020092
0 36 - U 0.000378
0 36 - G 0.000014
0 36 - - 0.000000
0 37 A A 0.000417
0 37 A C 0.007787
0 37 A U -0.006399
0 37 A G 0.000003
0 37 A - 0.000007
0 37 C A -0.000007
0 37 C C 0.000733
0 37 C U 0.001201
0 37 C G 0.000012
0 37 C - 0.000012
0 37 U A 0.000853
0 37 U C -0.033516
0 37 U U 0.001847
0 37 U G -0.000003
0 37 U - 0.000002
0 37 G A -0.000006
0 37 G C -0.001945
0 37 G U -0.023984
0 37 G G 0.000001
0 37 G - -0.000004
0 37 - A 0.000012
0 37 - C 0.000997
0 37 - U 0.002775
0 37 - G -0.000006
0 37 - - 0.000004
0 38 A A -0.000004
0 38 A C -0.000012
0 38 A U -0.010714
0 38 A G -0.000004
0 38 A - 0.001369
0 38 C A -0.000009
0 38 C C 0.000003
0 38 C U 0.000709
0 38 C G 0.000638
0 38 C - -0.000005
0 38 U A -0.002859
0 38 U C -0.000006
0 38 U U -0.001277
0 38 U G 0.000426
0 38 U - 0.000835
0 38 G A 0.000001
0 38 G C 0.000007
0 38 G U -0.002410
0 38 G G 0.000010
0 38 G - -0.000005
0 38 - A -0.000001
0 38 - C -0.000005
0 38 - U 0.015019
0 38 - G 0.000006
0 38 - - 0.000006
0 39 A A 0.100479
0 39 A C 0.004762
0 39 A U -0.329630
0 39 A G 0.003108
0 39 A - 0.000230
0 39 C A -0.001060
0 39 C C -0.000005
0 39 C U 0.018342
0 39 C G 0.001415
0 39 C - 0.000011
0 39 U A -0.007043
0 39 U C -0.000012
0 39 U U 0.022221
0 39 U G -0.009586
0 39 U - -0.000005
0 39 G A -0.001874
0 39 G C 0.000008
0 39 G U 0.094300
0 39 G G 0.004025
0 39 G - 0.000011
0 39 - A 0.000280
0 39 - C 0.000004
0 39 - U 0.001186
0 39 - G 0.003190
0 39 - - 0.000012
0 40 A A -0.056163
0 40 A C 0.004812
0 40 A U -0.000858
0 40 A G 0.060800
0 40 A - 0.000405
0 40 C A 0.004184
0 40 C C -0.000005
0 40 C U 0.000004
0 40 C G -0.016355
0 40 C - 0.000562
0 40 U A 0.002835
0 40 U C 0.000474
0 40 U U 0.002551
0 40 U G -0.069353
0 40 U - -0.000006
0 40 G A 0.002473
0 40 G C 0.000012
0 40 G U -0.000004
0 40 G G 0.008052
0 40 G - -0.000007
0 40 - A -0.000004
0 40 - C -0.000003
0 40 - U 0.000005
0 40 - G 0.006348
0 40 - - -0.000007
0 41 A A 0.000202
0 41 A C 0.000963
0 41 A U -0.070021
0 41 A G 0.011740
0 41 A - 0.000389
0 41 C A 0.001288
0 41 C C 0.000465
0 41 C U -0.000011
0 41 C G -0.000100
0 41 C - 0.000816
0 41 U A 0.002686
0 41 U C 0.003691
0 41 U U -0.000931
0 41 U G -0.139676
0 41 U - 0.000001
0 41 G A -0.000118
0 41 G C -0.000001
0 41 G U 0.133410
0 41 G G -0.003518
0 41 G - 0.000010
0 41 - A 0.001093
0 41 - C -0.000006
0 41 - U 0.000000
0 41 - G 0.002158
0 41 - - -0.000006
0 42 A A 0.030214
0 42 A C 0.001130
0 42 A U -0.003562
0 42 A G -0.034734
0 42 A - -0.000003
0 42 C A -0.000076
0 42 C C 0.000112
0 42 C U 0.000056
0 42 C G 0.004311
0 42 C - 0.000004
0 42 U A -0.035319
0 42 U C 0.003201
0 42 U U 0.000622
0 42 U G -0.023668
0 42 U - 0.000285
0 42 G A -0.000947
0 42 G C -0.000672
0 42 G U 0.003142
0 42 G G 0.022574
0 42 G - -0.000004
0 42 - A 0.000010
0 42 - C 0.000628
0 42 - U 0.000009
0 42 - G -0.000006
0 42 - - 0.000004
0 43 A A -0.092623
0 43 A C -0.051335
0 43 A U 0.015752
0 43 A G 0.065768
0 43 A - 0.000917
0 43 C A 0.001677
0 43 C C 0.000074
0 43 C U 0.000432
0 43 C G -0.000002
0 43 C - -0.000009
0 43 U A 0.280042
0 43 U C -0.001117
0 43 U U -0.194826
0 43 U G -0.030485
0 43 U - -0.000002
0 43 G A 0.000148
0 43 G C 0.003738
0 43 G U 0.018032
0 43 G G -0.035323
0 43 G - 0.000011
0 43 - A -0.000006
0 43 - C 0.000007
0 43 - U 0.001195
0 43 - G 0.000001
0 43 - - -0.000001
0 44 A A 0.034316
0 44 A C 0.022278
0 44 A U -0.046860
0 44 A G -0.007390
0 44 A - 0.000527
0 44 C A -0.136755
0 44 C C -0.000000
0 44 C U 0.000002
0 44 C G 0.058510
0 44 C - -0.000005
0 44 U A 0.005253
0 44 U C 0.002207
0 44 U U 0.003418
0 44 U G -0.058956
0 44 U - -0.000001
0 44 G A -0.008549
0 44 G C 0.000003
0 44 G U 0.000360
0 44 G G 0.037295
0 44 G - 0.000009
0 44 - A 0.037749
0 44 - C 0.000002
0 44 - U -0.000008
0 44 - G 0.000886
0 44 - - -0.000005
0 45 A A -0.000114
0 45 A C -0.000210
0 45 A U 0.001033
0 45 A G 0.001367
0 45 A - 0.000001
0 45 C A -0.000001
0 45 C C 0.000159
0 45 C U -0.015747
0 45 C G -0.000004
0 45 C - 0.000010
0 45 U A 0.003586
0 45 U C 0.002717
0 45 U U -0.006444
0 45 U G -0.048872
0 45 U - 0.000003
0 45 G A -0.001354
0 45 G C 0.000132
0 45 G U 0.002517
0 45 G G 0.003509
0 45 G - 0.000008
0 45 - A 0.000003
0 45 - C -0.000002
0 45 - U 0.009652
0 45 - G -0.000001
0 45 - - 0.000010
0 46 A A 0.028746
0 46 A C 0.005580
0 46 A U -0.033856
0 46 A G 0.003758
0 46 A - 0.000065
0 46 C A -0.000033
0 46 C C -0.000002
0 46 C U 0.003971
0 46 C G 0.002460
0 46 C - -0.000000
0 46 U A -0.008080
0 46 U C 0.000212
0 46 U U 0.077675
0 46 U G -0.298492
0 46 U - 0.008428
0 46 G A -0.001462
0 46 G C 0.002567
0 46 G U 0.002109
0 46 G G 0.096245
0 46 G - 0.000006
0 46 - A 0.003030
0 46 - C 0.000002
0 46 - U 0.001469
0 46 - G -0.000002
0 46 - - 0.000001
0 47 A A -0.002623
0 47 A C 0.003639
0 47 A U 0.055425
0 47 A G -0.018135
0 47 A - -0.000005
0 47 C A 0.017422
0 47 C C 0.001337
0 47 C U -0.047605
0 47 C G -0.000012
0 47 C - -0.000003
0 47 U A -0.021381
0 47 U C -0.005077
0 47 U U -0.055242
0 47 U G 0.041863
0 47 U - -0.000001
0 47 G A -0.000492
0 47 G C 0.001722
0 47 G U -0.001471
0 47 G G -0.000482
0 47 G - 0.000009
0 47 - A -0.000001
0 47 - C 0.000011
0 47 - U 0.004492
0 47 - G 0.000000
0 47 - - -0.000007
0 48 A A -0.020602
0 48 A C 0.001772
0 48 A U 0.230101
0 48 A G 0.002180
0 48 A - -0.000005
0 48 C A 0.004748
0 48 C C -0.000004
0 48 C U 0.000961
0 48 C G 0.001862
0 48 C - 0.000002
0 48 U A 0.002268
0 48 U C 0.007052
0 48 U U -0.076313
0 48 U G -0.201831
0 48 U - -0.000004
0 48 G A -0.000103
0 48 G C 0.000868
0 48 G U -0.002850
0 48 G G 0.000162
0 48 G - 0.000004
0 48 - A 0.000636
0 48 - C -0.000002
0 48 - U 0.000009
0 48 - G 0.004238
0 48 - - -0.000007
0 49 A A -0.000006
0 49 A C 0.000097
0 49 A U -0.000007
0 49 A G -0.114750
0 49 A - -0.000007
0 49 C A 0.000569
0 49 C C 0.000002
0 49 C U -0.000005
0 49 C G 0.000325
0 49 C - -0.000005
0 49 U A 0.000101
0 49 U C 0.000065
0 49 U U 0.000005
0 49 U G -0.012333
0 49 U - 0.000801
0 49 G A -0.000011
0 49 G C 0.000010
0 49 G U -0.000003
0 49 G G 0.000825
0 49 G - 0.000006
0 49 - A 0.000002
0 49 - C 0.000006
0 49 - U 0.000006
0 49 - G 0.103457
0 49 - - 0.000002
0 50 A A -0.010585
0 50 A C 0.000007
0 50 A U 0.000006
0 50 A G 0.000828
0 50 A - -0.000005
0 50 C A 0.000941
0 50 C C -0.000004
0 50 C U -0.000004
0 50 C G 0.000005
0 50 C - 0.000005
0 50 U A -0.012525
0 50 U C 0.000001
0 50 U U 0.000005
0 50 U G 0.000717
0 50 U - 0.000001
0 50 G A -0.002461
0 50 G C -0.000004
0 50 G U -0.000009
0 50 G G 0.000007
0 50 G - 0.000005
0 50 - A 0.037807
0 50 - C 0.000005
0 50 - U 0.000005
0 50 - G 0.000005
0 50 - - -0.000010
0 51 A A -0.000721
0 51 A C 0.000451
0 51 A U -0.000286
0 51 A G -0.006151
0 51 A - 0.000006
0 51 C A 0.000005
0 51 C C 0.000010
0 51 C U 0.000007
0 51 C G 0.001014
0 51 C - 0.000007
0 51 U A -0.004639
0 51 U C -0.000002
0 51 U U 0.000196
0 51 U G -0.001456
0 51 U - -0.000005
0 51 G A -0.000004
0 51 G C 0.000008
0 51 G U 0.000189
0 51 G G -0.001783
0 51 G - 0.000009
0 51 - A 0.000007
0 51 - C 0.000001
0 51 - U 0.000007
0 51 - G 0.018788
0 51 - - 0.000007
0 52 A A -0.005978
0 52 A C -0.017851
0 52 A U 0.030690
0 52 A G 0.000005
0 52 A - 0.000008
0 52 C A -0.000004
0 52 C C 0.000273
0 52 C U 0.108677
0 52 C G -0.000002
0 52 C - -0.000000
0 52 U A -0.000003
0 52 U C -0.079975
0 52 U U -0.025165
0 52 U G 0.027380
0 52 U - 0.000006
0 52 G A 0.000418
0 52 G C 0.021480
0 52 G U -0.085532
0 52 G G 0.000002
0 52 G - -0.000009
0 52 - A 0.000006
0 52 - C 0.002043
0 52 - U 0.000788
0 52 - G 0.000004
0 52 - - 0.000006
0 53 A A -0.074709
0 53 A C -0.009086
0 53 A U 0.029597
0 53 A G 0.001346
0 53 A - 0.000500
0 53 C A 0.030474
0 53 C C -0.000064
0 53 C U 0.002845
0 53 C G 0.000166
0 53 C - 0.000003
0 53 U A -0.000434
0 53 U C 0.001329
0 53 U U -0.057955
0 53 U G 0.001321
0 53 U - 0.000943
0 53 G A -0.000405
0 53 G C 0.052884
0 53 G U -0.001352
0 53 G G -0.033590
0 53 G - -0.000003
0 53 - A 0.000001
0 53 - C 0.001010
0 53 - U 0.002357
0 53 - G 0.000667
0 53 - - 0.000011
0 54 A A -0.047285
0 54 A C 0.001553
0 54 A U 0.001312
0 54 A G 0.045932
0 54 A - 0.000337
0 54 C A 0.001953
0 54 C C 0.000003
0 54 C U 0.000002
0 54 C G -0.000005
0 54 C - 0.000013
0 54 U A 0.002370
0 54 U C 0.000146
0 54 U U 0.000002
0 54 U G -0.093570
0 54 U - 0.001020
0 54 G A -0.001227
0 54 G C 0.000002
0 54 G U 0.000008
0 54 G G -0.000001
0 54 G - 0.000013
0 54 - A 0.014500
0 54 - C 0.000004
0 54 - U 0.000010
0 54 - G 0.000010
0 54 - - 0.000002
0 55 A A 0.007520
0 55 A C -0.005080
0 55 A U -0.001869
0 55 A G 0.001129
0 55 A - 0.000008
0 55 C A 0.005810
0 55 C C 0.000796
0 55 C U -0.000010
0 55 C G -0.000969
0 55 C - 0.000003
0 55 U A -0.002574
0 55 U C -0.000959
0 55 U U 0.004593
0 55 U G -0.062534
0 55 U - 0.000436
0 55 G A -0.000196
0 55 G C 0.000652
0 55 G U 0.000475
0 55 G G -0.001761
0 55 G - 0.000011
0 55 - A -0.000003
0 55 - C -0.000008
0 55 - U 0.000011
0 55 - G 0.016985
0 55 - - -0.000004
0 56 A A -0.000003
0 56 A C -0.007084
0 56 A U -0.000879
0 56 A G 0.000411
0 56 A - 0.000907
0 56 C A -0.000003
0 56 C C 0.000640
0 56 C U -0.000082
0 56 C G 0.000006
0 56 C - 0.000001
0 56 U A 0.000004
0 56 U C 0.000144
0 56 U U -0.023590
0 56 U G 0.000008
0 56 U - 0.000008
0 56 G A 0.000005
0 56 G C -0.000010
0 56 G U -0.001786
0 56 G G -0.000007
0 56 G - -0.000012
0 56 - A 0.000009
0 56 - C -0.000007
0 56 - U 0.031693
0 56 - G -0.000007
0 56 - - -0.000007
0 57 A A 0.197107
0 57 A C 0.000009
0 57 A U -0.156795
0 57 A G 0.000927
0 57 A - 0.022478
0 57 C A -0.000045
0 57 C C 0.000006
0 57 C U 0.000766
0 57 C G 0.001976
0 57 C - 0.000006
0 57 U A -0.216566
0 57 U C 0.000600
0 57 U U 0.027754
0 57 U G 0.001788
0 57 U - 0.000001
0 57 G A 0.017817
0 57 G C 0.000007
0 57 G U 0.000212
0 57 G G -0.003213
0 57 G - 0.000003
0 57 - A 0.006007
0 57 - C 0.000006
0 57 - U 0.000006
0 57 - G 0.005520
0 57 - - 0.000006
0 58 A A 0.233198
0 58 A C 0.000012
0 58 A U -0.000000
0 58 A G -0.281003
0 58 A - -0.000003
0 58 C A 0.014085
0 58 C C -0.000001
0 58 C U 0.000009
0 58 C G 0.001116
0 58 C - 0.000013
0 58 U A -0.159047
0 58 U C 0.000890
0 58 U U -0.000008
0 58 U G 0.013029
0 58 U - -0.000004
0 58 G A -0.000356
0 58 G C 0.000996
0 58 G U 0.000006
0 58 G G 0.009306
0 58 G - 0.000284
0 58 - A 0.000324
0 58 - C -0.000002
0 58 - U -0.000002
0 58 - G 0.063930
0 58 - - -0.000002
0 59 A A 0.002190
0 59 A C 0.002375
0 59 A U -0.013282
0 59 A G 0.001231
0 59 A - 0.000008
0 59 C A -0.000008
0 59 C C -0.000005
0 59 C U 0.001216
0 59 C G -0.000011
0 59 C - -0.000008
0 59 U A 0.000618
0 59 U C -0.004591
0 59 U U -0.001222
0 59 U G -0.000004
0 59 U - -0.000002
0 59 G A -0.000001
0 59 G C 0.000000
0 59 G U -0.003361
0 59 G G 0.000004
0 59 G - -0.000003
0 59 - A 0.000001
0 59 - C -0.000005
0 59 - U 0.017875
0 59 - G 0.000007
0 59 - - 0.000007
0 60 A A 0.000237
0 60 A C -0.000006
0 60 A U 0.001197
0 60 A G -0.003325
0 60 A - 0.000010
0 60 C A -0.000006
0 60 C C 0.000004
0 60 C U 0.000006
0 60 C G 0.001813
0 60 C - -0.000006
0 60 U A -0.000004
0 60 U C 0.000697
0 60 U U -0.000003
0 60 U G -0.032529
0 60 U - 0.000006
0 60 G A 0.000605
0 60 G C 0.000006
0 60 G U -0.000002
0 60 G G -0.002659
0 60 G - 0.000001
0 60 - A -0.000007
0 60 - C 0.000008
0 60 - U 0.000006
0 60 - G 0.027893
0 60 - - 0.000003
0 61 A A 0.019340
0 61 A C -0.116141
0 61 A U -0.000468
0 61 A G -0.000005
0 61 A - -0.000002
0 61 C A 0.002038
0 61 C C 0.010858
0 61 C U -0.000004
0 61 C G 0.000007
0 61 C - -0.000007
0 61 U A -0.038098
0 61 U C 0.000001
0 61 U U -0.000428
0 61 U G 0.002139
0 61 U - 0.000083
0 61 G A 0.000765
0 61 G C -0.015796
0 61 G U 0.000001
0 61 G G -0.000002
0 61 G - 0.000005
0 61 - A 0.000003
0 61 - C 0.070031
0 61 - U 0.000004
0 61 - G 0.000003
0 61 - - -0.000003
0 62 A A 0.001373
0 62 A C 0.000001
0 62 A U -0.000008
0 62 A G -0.000003
0 62 A - 0.000008
0 62 C A -0.001240
0 62 C C 0.000003
0 62 C U 0.000003
0 62 C G 0.002772
0 62 C - 0.000003
0 62 U A -0.098466
0 62 U C 0.000006
0 62 U U -0.000005
0 62 U G -0.000007
0 62 U - 0.000009
0 62 G A -0.000370
0 62 G C 0.000750
0 62 G U -0.000008
0 62 G G -0.000012
0 62 G - 0.000011
0 62 - A 0.063857
0 62 - C 0.000003
0 62 - U 0.000004
0 62 - G 0.000003
0 62 - - 0.000003
0 63 A A -0.022149
0 63 A C 0.001368
0 63 A U 0.000009
0 63 A G -0.000015
0 63 A - -0.000005
0 63 C A 0.002559
0 63 C C -0.000014
0 63 C U -0.000007
0 63 C G 0.000004
0 63 C - -0.000005
0 63 U A -0.001295
0 63 U C -0.007432
0 63 U U 0.001385
0 63 U G 0.000213
0 63 U - 0.000997
0 63 G A -0.054193
0 63 G C 0.000005
0 63 G U 0.000004
0 63 G G -0.000008
0 63 G - -0.000005
0 63 - A 0.034918
0 63 - C -0.000001
0 63 - U -0.000008
0 63 - G -0.000000
0 63 - - -0.000000
0 64 A A 0.000010
0 64 A C 0.000787
0 64 A U -0.000006
0 64 A G -0.000006
0 64 A - 0.000004
0 64 C A 0.000590
0 64 C C 0.000288
0 64 C U 0.000001
0 64 C G -0.000001
0 64 C - 0.000001
0 64 U A -0.000003
0 64 U C -0.038019
0 64 U U 0.000004
0 64 U G -0.000005
0 64 U - 0.000003
0 64 G A 0.000006
0 64 G C -0.003264
0 64 G U 0.000001
0 64 G G 0.000007
0 64 G - -0.000008
0 64 - A 0.000003
0 64 - C 0.030774
0 64 - U -0.000004
0 64 - G 0.000001
0 64 - - 0.000001
0 65 A A 0.000002
0 65 A C -0.003451
0 65 A U 0.000001
0 65 A G -0.000007
0 65 A - -0.000003
0 65 C A -0.000004
0 65 C C 0.000987
0 65 C U 0.000005
0 65 C G -0.000004
0 65 C - 0.000001
0 65 U A -0.000013
0 65 U C -0.008654
0 65 U U 0.000002
0 65 U G -0.000004
0 65 U - 0.000004
0 65 G A 0.000001
0 65 G C -0.003534
0 65 G U -0.000004
0 65 G G 0.000497
0 65 G - 0.000003
0 65 - A -0.000004
0 65 - C 0.028050
0 65 - U -0.000003
0 65 - G -0.000004
0 65 - - -0.000004
0 66 A A 0.005970
0 66 A C 0.015269
0 66 A U -0.000137
0 66 A G -0.121479
0 66 A - 0.001118
0 66 C A -0.000008
0 66 C C 0.000004
0 66 C U -0.000003