# NB_STEPS 3000
# UP_FREQ 1000
# TEMP 1.000000
# LAMBDA 0.050000
# ID_THRES 1.000000
# ALPHA 1.000000
0 0 A A -0.000002
0 0 C C -0.006963
0 0 U U 0.000049
0 0 G G 0.000065
0 0 - - 0.000083
0 1 A A -0.000013
0 1 A C 0.000979
0 1 A U -0.000014
0 1 A G 0.000048
0 1 A - 0.000076
0 1 C A 0.001379
0 1 C C -0.746453
0 1 C U 0.001744
0 1 C G 0.003479
0 1 C - 0.000547
0 1 U A -0.000015
0 1 U C 0.001127
0 1 U U 0.000064
0 1 U G 0.000049
0 1 U - 0.000066
0 1 G A -0.000009
0 1 G C 0.004323
0 1 G U 0.000001
0 1 G G 0.000004
0 1 G - 0.000060
0 1 - A 0.000025
0 1 - C 0.003736
0 1 - U 0.000043
0 1 - G -0.000014
0 1 - - -0.000012
0 2 A A -0.000037
0 2 A C -0.000037
0 2 A U 0.000031
0 2 A G -0.000020
0 2 A - -0.000037
0 2 C A 0.000031
0 2 C C 0.000009
0 2 C U -0.212648
0 2 C G 0.000630
0 2 C - 0.000016
0 2 U A -0.000037
0 2 U C -0.000019
0 2 U U -0.000020
0 2 U G -0.000037
0 2 U - -0.000020
0 2 G A -0.000037
0 2 G C 0.000000
0 2 G U 0.000192
0 2 G G -0.000000
0 2 G - -0.000003
0 2 - A 0.000004
0 2 - C -0.000037
0 2 - U 0.000382
0 2 - G -0.000015
0 2 - - -0.000030
0 3 A A 0.000051
0 3 A C -0.000045
0 3 A U 0.000051
0 3 A G -0.000032
0 3 A - -0.000029
0 3 C A -0.000031
0 3 C C -0.158061
0 3 C U 0.000023
0 3 C G 0.000051
0 3 C - 0.000043
0 3 U A -0.000029
0 3 U C -0.000027
0 3 U U 0.000051
0 3 U G -0.000013
0 3 U - -0.000015
0 3 G A -0.000032
0 3 G C -0.000016
0 3 G U -0.000027
0 3 G G 0.000009
0 3 G - 0.000170
0 3 - A -0.000029
0 3 - C 0.000348
0 3 - U -0.000029
0 3 - G -0.000028
0 3 - - -0.000039
0 4 A A -0.000030
0 4 A C 0.000048
0 4 A U 0.000051
0 4 A G -0.000033
0 4 A - 0.000051
0 4 C A -0.000021
0 4 C C -0.226618
0 4 C U -0.000051
0 4 C G 0.000052
0 4 C - 0.000898
0 4 U A 0.000051
0 4 U C -0.000005
0 4 U U -0.000034
0 4 U G 0.000051
0 4 U - 0.000051
0 4 G A 0.000051
0 4 G C 0.000215
0 4 G U -0.000010
0 4 G G -0.000037
0 4 G - 0.000051
0 4 - A 0.000051
0 4 - C 0.000418
0 4 - U 0.000011
0 4 - G -0.000029
0 4 - - 0.000014
0 5 A A -0.000019
0 5 A C 0.000043
0 5 A U 0.000015
0 5 A G 0.000015
0 5 A - -0.000003
0 5 C A 0.000024
0 5 C C -0.164248
0 5 C U 0.000050
0 5 C G -0.000018
0 5 C - 0.000551
0 5 U A 0.000033
0 5 U C -0.000014
0 5 U U 0.000009
0 5 U G -0.000019
0 5 U - 0.000028
0 5 G A -0.000019
0 5 G C 0.000124
0 5 G U -0.000005
0 5 G G 0.000028
0 5 G - -0.000019
0 5 - A 0.000002
0 5 - C 0.000327
0 5 - U -0.000019
0 5 - G 0.000016
0 5 - - -0.000000
0 6 A A -0.000032
0 6 A C 0.000053
0 6 A U 0.000035
0 6 A G -0.000044
0 6 A - 0.000035
0 6 C A -0.000014
0 6 C C 0.000797
0 6 C U 0.000021
0 6 C G -0.135733
0 6 C - 0.000012
0 6 U A 0.000054
0 6 U C 0.000055
0 6 U U -0.000015
0 6 U G -0.000034
0 6 U - -0.000015
0 6 G A 0.000052
0 6 G C -0.000036
0 6 G U 0.000052
0 6 G G 0.000012
0 6 G - 0.000166
0 6 - A 0.000035
0 6 - C 0.000035
0 6 - U 0.000035
0 6 - G 0.000323
0 6 - - -0.000036
0 7 A A 0.000031
0 7 A C 0.000183
0 7 A U 0.000031
0 7 A G -0.000017
0 7 A - 0.000031
0 7 C A 0.002121
0 7 C C -0.000037
0 7 C U 0.000404
0 7 C G -0.073796
0 7 C - 0.002841
0 7 U A 0.000031
0 7 U C -0.000020
0 7 U U 0.000031
0 7 U G 0.000025
0 7 U - 0.000031
0 7 G A -0.000032
0 7 G C -0.000002
0 7 G U 0.000031
0 7 G G 0.000109
0 7 G - 0.000046
0 7 - A 0.000031
0 7 - C 0.000048
0 7 - U -0.000033
0 7 - G 0.000282
0 7 - - -0.000045
0 8 A A 0.000014
0 8 A C 0.000014
0 8 A U 0.000014
0 8 A G 0.000080
0 8 A - 0.000014
0 8 C A 0.000132
0 8 C C 0.000202
0 8 C U -0.000006
0 8 C G -0.271083
0 8 C - 0.000035
0 8 U A 0.000014
0 8 U C 0.000014
0 8 U U 0.000056
0 8 U G 0.000012
0 8 U - 0.000037
0 8 G A 0.000033
0 8 G C 0.000053
0 8 G U 0.000034
0 8 G G 0.000218
0 8 G - 0.000014
0 8 - A 0.000014
0 8 - C 0.000014
0 8 - U 0.000033
0 8 - G 0.000420
0 8 - - 0.000020
0 9 A A 0.000018
0 9 A C -0.000011
0 9 A U -0.000011
0 9 A G 0.000029
0 9 A - 0.000009
0 9 C A -0.207489
0 9 C C -0.000009
0 9 C U -0.000011
0 9 C G 0.000013
0 9 C - 0.000583
0 9 U A 0.000016
0 9 U C 0.000009
0 9 U U 0.000007
0 9 U G -0.000011
0 9 U - 0.000008
0 9 G A 0.000163
0 9 G C -0.000011
0 9 G U -0.000011
0 9 G G 0.000020
0 9 G - 0.000027
0 9 - A 0.000350
0 9 - C 0.000010
0 9 - U 0.000005
0 9 - G -0.000011
0 9 - - 0.000009
0 10 A A -0.000001
0 10 A C -0.000000
0 10 A U -0.000020
0 10 A G 0.000119
0 10 A - -0.000020
0 10 C A -0.000023
0 10 C C 0.000050
0 10 C U 0.000028
0 10 C G -0.298950
0 10 C - 0.000950
0 10 U A 0.000000
0 10 U C -0.000000
0 10 U U -0.000020
0 10 U G 0.000089
0 10 U - -0.000020
0 10 G A -0.000020
0 10 G C -0.000020
0 10 G U -0.000020
0 10 G G 0.000278
0 10 G - 0.000021
0 10 - A -0.000020
0 10 - C -0.000003
0 10 - U -0.000020
0 10 - G 0.000450
0 10 - - -0.000010
0 11 A A 0.000027
0 11 A C -0.000035
0 11 A U 0.000010
0 11 A G 0.000028
0 11 A - 0.000010
0 11 C A -0.196507
0 11 C C -0.000034
0 11 C U 0.000050
0 11 C G 0.000236
0 11 C - -0.000001
0 11 U A 0.000001
0 11 U C 0.000046
0 11 U U 0.000010
0 11 U G 0.000028
0 11 U - 0.000010
0 11 G A 0.000203
0 11 G C 0.000010
0 11 G U 0.000010
0 11 G G 0.000029
0 11 G - 0.000010
0 11 - A 0.000375
0 11 - C 0.000010
0 11 - U 0.000030
0 11 - G 0.000029
0 11 - - 0.000014
0 12 A A 0.000036
0 12 A C 0.000036
0 12 A U 0.000058
0 12 A G 0.000119
0 12 A - 0.000048
0 12 C A 0.000060
0 12 C C 0.000763
0 12 C U 0.000037
0 12 C G -0.268029
0 12 C - 0.001194
0 12 U A 0.000036
0 12 U C -0.000016
0 12 U U 0.000036
0 12 U G 0.000057
0 12 U - 0.000036
0 12 G A 0.000036
0 12 G C -0.000038
0 12 G U 0.000036
0 12 G G 0.000245
0 12 G - 0.000036
0 12 - A 0.000055
0 12 - C 0.000036
0 12 - U -0.000023
0 12 - G 0.000409
0 12 - - 0.000038
0 13 A A 0.000056
0 13 A C -0.000043
0 13 A U -0.000018
0 13 A G 0.000039
0 13 A - 0.000257
0 13 C A 0.000264
0 13 C C -0.209620
0 13 C U -0.000024
0 13 C G 0.000039
0 13 C - 0.000035
0 13 U A 0.000039
0 13 U C -0.000028
0 13 U U -0.000040
0 13 U G 0.000056
0 13 U - -0.000002
0 13 G A -0.000022
0 13 G C 0.000148
0 13 G U 0.000039
0 13 G G -0.000041
0 13 G - -0.000041
0 13 - A 0.000039
0 13 - C 0.000317
0 13 - U 0.000057
0 13 - G 0.000056
0 13 - - -0.000053
0 14 A A 0.000149
0 14 A C -0.000030
0 14 A U -0.000017
0 14 A G -0.000032
0 14 A - 0.000033
0 14 C A 0.001039
0 14 C C -0.110541
0 14 C U 0.000854
0 14 C G 0.000036
0 14 C - -0.000015
0 14 U A 0.000048
0 14 U C -0.000028
0 14 U U 0.000033
0 14 U G 0.000033
0 14 U - -0.000032
0 14 G A 0.000051
0 14 G C 0.000113
0 14 G U -0.000014
0 14 G G 0.000051
0 14 G - -0.000017
0 14 - A 0.000051
0 14 - C 0.000341
0 14 - U 0.000048
0 14 - G 0.000050
0 14 - - -0.000050
0 15 A A 0.000014
0 15 A C -0.000041
0 15 A U -0.000041
0 15 A G -0.000041
0 15 A - -0.000041
0 15 C A -0.158496
0 15 C C 0.001248
0 15 C U 0.000018
0 15 C G -0.000054
0 15 C - 0.000023
0 15 U A -0.000029
0 15 U C -0.000041
0 15 U U -0.000041
0 15 U G -0.000041
0 15 U - 0.000012
0 15 G A 0.000146
0 15 G C -0.000041
0 15 G U -0.000009
0 15 G G -0.000007
0 15 G - -0.000041
0 15 - A 0.000318
0 15 - C -0.000041
0 15 - U -0.000021
0 15 - G -0.000041
0 15 - - -0.000037
0 16 A A -0.000003
0 16 A C -0.000009
0 16 A U -0.000031
0 16 A G -0.000012
0 16 A - 0.000004
0 16 C A -0.000034
0 16 C C -0.000007
0 16 C U 0.000017
0 16 C G 0.000018
0 16 C - -0.015151
0 16 U A -0.000031
0 16 U C -0.000008
0 16 U U 0.000005
0 16 U G 0.000007
0 16 U - 0.000010
0 16 G A -0.000031
0 16 G C -0.000002
0 16 G U -0.000011
0 16 G G -0.000031
0 16 G - 0.000065
0 16 - A -0.000031
0 16 - C -0.000014
0 16 - U -0.000008
0 16 - G -0.000031
0 16 - - 0.000096
0 17 A A -0.000026
0 17 A C -0.000026
0 17 A U -0.000026
0 17 A G -0.000026
0 17 A - -0.000059
0 17 C A 0.000023
0 17 C C -0.000019
0 17 C U 0.000019
0 17 C G -0.000005
0 17 C - -0.016389
0 17 U A -0.000011
0 17 U C -0.000026
0 17 U U -0.000008
0 17 U G -0.000026
0 17 U - -0.000030
0 17 G A -0.000009
0 17 G C -0.000026
0 17 G U 0.000024
0 17 G G -0.000011
0 17 G - 0.000075
0 17 - A -0.000010
0 17 - C -0.000026
0 17 - U -0.000026
0 17 - G -0.000008
0 17 - - 0.000093
0 18 A A 0.000006
0 18 A C 0.000006
0 18 A U 0.000006
0 18 A G 0.000024
0 18 A - -0.000046
0 18 C A 0.000033
0 18 C C 0.000344
0 18 C U 0.000032
0 18 C G 0.000528
0 18 C - -0.024329
0 18 U A 0.000006
0 18 U C 0.000006
0 18 U U 0.000006
0 18 U G 0.000023
0 18 U - -0.000003
0 18 G A 0.000006
0 18 G C 0.000006
0 18 G U 0.000006
0 18 G G 0.000024
0 18 G - 0.000015
0 18 - A 0.000024
0 18 - C 0.000022
0 18 - U 0.000021
0 18 - G 0.000006
0 18 - - 0.000108
0 19 A A -0.000006
0 19 A C 0.000020
0 19 A U -0.000017
0 19 A G 0.000016
0 19 A - 0.000033
0 19 C A 0.000367
0 19 C C -0.000028
0 19 C U -0.000036
0 19 C G 0.000004
0 19 C - -0.017001
0 19 U A -0.000017
0 19 U C 0.000001
0 19 U U -0.000017
0 19 U G -0.000006
0 19 U - 0.000030
0 19 G A -0.000017
0 19 G C -0.000006
0 19 G U -0.000017
0 19 G G -0.000017
0 19 G - -0.000008
0 19 - A -0.000017
0 19 - C -0.000006
0 19 - U -0.000017
0 19 - G -0.000017
0 19 - - 0.000081
0 20 A A 0.000044
0 20 A C 0.000044
0 20 A U 0.000044
0 20 A G 0.000044
0 20 A - 0.000008
0 20 C A -0.000007
0 20 C C 0.000017
0 20 C U -0.000036
0 20 C G -0.000019
0 20 C - -0.023250
0 20 U A -0.000039
0 20 U C -0.000027
0 20 U U 0.000044
0 20 U G -0.000044
0 20 U - -0.000036
0 20 G A -0.000039
0 20 G C -0.000043
0 20 G U 0.000044
0 20 G G -0.000042
0 20 G - 0.000010
0 20 - A 0.000044
0 20 - C 0.000044
0 20 - U 0.000044
0 20 - G 0.000044
0 20 - - 0.000087
0 21 A A -0.000023
0 21 A C -0.000023
0 21 A U -0.000023
0 21 A G -0.000023
0 21 A - -0.000057
0 21 C A 0.000918
0 21 C C 0.000048
0 21 C U -0.000024
0 21 C G -0.000052
0 21 C - -0.014877
0 21 U A 0.000011
0 21 U C -0.000023
0 21 U U -0.000023
0 21 U G -0.000023
0 21 U - -0.000025
0 21 G A -0.000023
0 21 G C -0.000002
0 21 G U -0.000023
0 21 G G -0.000005
0 21 G - -0.000010
0 21 - A -0.000023
0 21 - C -0.000023
0 21 - U -0.000023
0 21 - G -0.000011
0 21 - - 0.000106
0 22 A A 0.000038
0 22 A C -0.000043
0 22 A U 0.000038
0 22 A G 0.000038
0 22 A - -0.000001
0 22 C A 0.000468
0 22 C C -0.000033
0 22 C U 0.000947
0 22 C G -0.000012
0 22 C - -0.020155
0 22 U A 0.000038
0 22 U C -0.000045
0 22 U U -0.000045
0 22 U G 0.000038
0 22 U - 0.000003
0 22 G A 0.000038
0 22 G C -0.000041
0 22 G U 0.000038
0 22 G G 0.000038
0 22 G - 0.000060
0 22 - A 0.000038
0 22 - C 0.000038
0 22 - U -0.000042
0 22 - G 0.000038
0 22 - - 0.000065
0 23 A A -0.000037
0 23 A C -0.000037
0 23 A U -0.000037
0 23 A G -0.000016
0 23 A - 0.000031
0 23 C A 0.000157
0 23 C C -0.000045
0 23 C U 0.000012
0 23 C G -0.000018
0 23 C - -0.020180
0 23 U A -0.000018
0 23 U C -0.000019
0 23 U U -0.000002
0 23 U G -0.000037
0 23 U - -0.000013
0 23 G A -0.000037
0 23 G C -0.000016
0 23 G U 0.000016
0 23 G G -0.000037
0 23 G - 0.000043
0 23 - A -0.000015
0 23 - C -0.000037
0 23 - U -0.000008
0 23 - G -0.000037
0 23 - - 0.000072
0 24 A A 0.000010
0 24 A C 0.000010
0 24 A U 0.000010
0 24 A G 0.000033
0 24 A - -0.000033
0 24 C A 0.000004
0 24 C C -0.000033
0 24 C U -0.000048
0 24 C G 0.000032
0 24 C - -0.016757
0 24 U A 0.000010
0 24 U C 0.000010
0 24 U U 0.000033
0 24 U G 0.000032
0 24 U - -0.000033
0 24 G A 0.000010
0 24 G C 0.000010
0 24 G U 0.000010
0 24 G G 0.000010
0 24 G - 0.000040
0 24 - A 0.000033
0 24 - C 0.000010
0 24 - U 0.000033
0 24 - G 0.000010
0 24 - - 0.000116
0 25 A A -0.000010
0 25 A C -0.000030
0 25 A U -0.000030
0 25 A G -0.000030
0 25 A - 0.000037
0 25 C A 0.000005
0 25 C C 0.000022
0 25 C U 0.000003
0 25 C G 0.000196
0 25 C - -0.013558
0 25 U A -0.000030
0 25 U C -0.000030
0 25 U U 0.000004
0 25 U G -0.000030
0 25 U - -0.000045
0 25 G A -0.000018
0 25 G C -0.000015
0 25 G U -0.000030
0 25 G G -0.000030
0 25 G - 0.000064
0 25 - A -0.000030
0 25 - C -0.000030
0 25 - U -0.000017
0 25 - G -0.000030
0 25 - - 0.000085
0 26 A A -0.000042
0 26 A C -0.000042
0 26 A U -0.000020
0 26 A G -0.000024
0 26 A - 0.000004
0 26 C A 0.000165
0 26 C C 0.000038
0 26 C U -0.000035
0 26 C G -0.000002
0 26 C - -0.011854
0 26 U A -0.000004
0 26 U C -0.000025
0 26 U U -0.000016
0 26 U G -0.000005
0 26 U - 0.000033
0 26 G A -0.000015
0 26 G C -0.000016
0 26 G U -0.000042
0 26 G G -0.000042
0 26 G - 0.000008
0 26 - A -0.000005
0 26 - C -0.000042
0 26 - U -0.000042
0 26 - G -0.000004
0 26 - - 0.000146
0 27 A A 0.000010
0 27 A C 0.000041
0 27 A U 0.000010
0 27 A G 0.000030
0 27 A - -0.000001
0 27 C A -0.000033
0 27 C C -0.000001
0 27 C U -0.000041
0 27 C G -0.000049
0 27 C - -0.009657
0 27 U A 0.000010
0 27 U C 0.000023
0 27 U U 0.000010
0 27 U G 0.000010
0 27 U - -0.000012
0 27 G A 0.000027
0 27 G C 0.000010
0 27 G U 0.000010
0 27 G G 0.000010
0 27 G - 0.000026
0 27 - A 0.000010
0 27 - C 0.000041
0 27 - U 0.000025
0 27 - G 0.000010
0 27 - - 0.000116
0 28 A A 0.000097
0 28 A C -0.000019
0 28 A U -0.000019
0 28 A G -0.000003
0 28 A - 0.000015
0 28 C A 0.000016
0 28 C C -0.000022
0 28 C U 0.000023
0 28 C G 0.001011
0 28 C - -0.021457
0 28 U A -0.000019
0 28 U C -0.000019
0 28 U U -0.000007
0 28 U G -0.000019
0 28 U - -0.000025
0 28 G A 0.000015
0 28 G C 0.000031
0 28 G U -0.000019
0 28 G G -0.000019
0 28 G - 0.000044
0 28 - A -0.000019
0 28 - C -0.000019
0 28 - U -0.000019
0 28 - G -0.000019
0 28 - - 0.000132
0 29 A A -0.000040
0 29 A C -0.000040
0 29 A U -0.000040
0 29 A G -0.000025
0 29 A - -0.000052
0 29 C A 0.000022
0 29 C C 0.000033
0 29 C U 0.000574
0 29 C G 0.000001
0 29 C - -0.011944
0 29 U A -0.000019
0 29 U C -0.000005
0 29 U U -0.000040
0 29 U G -0.000040
0 29 U - 0.000009
0 29 G A -0.000040
0 29 G C -0.000040
0 29 G U -0.000040
0 29 G G -0.000025
0 29 G - -0.000024
0 29 - A -0.000003
0 29 - C -0.000025
0 29 - U -0.000012
0 29 - G -0.000022
0 29 - - 0.000098
0 30 A A -0.000015
0 30 A C -0.000015
0 30 A U -0.000015
0 30 A G -0.000015
0 30 A - -0.000058
0 30 C A 0.000373
0 30 C C 0.000037
0 30 C U -0.000024
0 30 C G 0.000044
0 30 C - -0.032952
0 30 U A 0.000016
0 30 U C -0.000015
0 30 U U -0.000015
0 30 U G -0.000015
0 30 U - -0.000027
0 30 G A -0.000015
0 30 G C -0.000015
0 30 G U -0.000015
0 30 G G -0.000000
0 30 G - -0.000007
0 30 - A -0.000015
0 30 - C -0.000015
0 30 - U -0.000015
0 30 - G 0.000415
0 30 - - 0.000005
0 31 A A -0.000008
0 31 A C -0.000008
0 31 A U 0.000005
0 31 A G -0.000008
0 31 A - -0.000045
0 31 C A -0.000032
0 31 C C 0.001124
0 31 C U -0.000011
0 31 C G 0.000020
0 31 C - -0.012677
0 31 U A -0.000008
0 31 U C -0.000008
0 31 U U 0.000027
0 31 U G -0.000008
0 31 U - -0.000024
0 31 G A -0.000008
0 31 G C -0.000008
0 31 G U 0.000024
0 31 G G -0.000008
0 31 G - 0.000026
0 31 - A -0.000008
0 31 - C 0.000007
0 31 - U 0.000003
0 31 - G 0.000009
0 31 - - 0.000112
0 32 A A -0.000016
0 32 A C 0.000041
0 32 A U -0.000049
0 32 A G 0.000040
0 32 A - -0.000010
0 32 C A -0.000013
0 32 C C 0.000614
0 32 C U -0.006591
0 32 C G 0.000048
0 32 C - -0.003961
0 32 U A 0.000028
0 32 U C 0.000028
0 32 U U -0.000002
0 32 U G 0.000028
0 32 U - 0.000009
0 32 G A 0.000047
0 32 G C -0.000044
0 32 G U 0.000058
0 32 G G 0.000044
0 32 G - -0.000024
0 32 - A -0.000044
0 32 - C 0.000044
0 32 - U 0.000019
0 32 - G 0.000441
0 32 - - -0.000043
0 33 A A -0.000021
0 33 A C 0.000037
0 33 A U -0.000055
0 33 A G 0.000044
0 33 A - 0.000016
0 33 C A 0.000652
0 33 C C -0.000046
0 33 C U -0.010677
0 33 C G 0.002005
0 33 C - -0.003729
0 33 U A 0.000045
0 33 U C -0.000015
0 33 U U 0.000040
0 33 U G -0.000047
0 33 U - 0.000020
0 33 G A -0.000027
0 33 G C -0.000046
0 33 G U 0.000031
0 33 G G 0.000048
0 33 G - 0.000033
0 33 - A 0.000005
0 33 - C -0.000033
0 33 - U 0.000091
0 33 - G -0.000033
0 33 - - 0.000044
0 34 A A -0.000014
0 34 A C 0.000049
0 34 A U -0.000030
0 34 A G -0.000034
0 34 A - 0.000037
0 34 C A -0.000002
0 34 C C 0.001800
0 34 C U 0.000021
0 34 C G -0.004290
0 34 C - -0.011358
0 34 U A 0.000049
0 34 U C -0.000018
0 34 U U 0.000049
0 34 U G -0.000002
0 34 U - -0.000012
0 34 G A 0.000049
0 34 G C -0.000029
0 34 G U -0.000019
0 34 G G -0.000007
0 34 G - 0.000047
0 34 - A -0.000032
0 34 - C 0.000049
0 34 - U -0.000029
0 34 - G 0.000121
0 34 - - -0.000044
0 35 A A 0.000045
0 35 A C 0.000027
0 35 A U -0.000003
0 35 A G 0.000027
0 35 A - 0.000021
0 35 C A 0.000642
0 35 C C 0.000009
0 35 C U -0.006223
0 35 C G 0.000641
0 35 C - -0.008130
0 35 U A 0.000045
0 35 U C 0.000044
0 35 U U -0.000046
0 35 U G 0.000027
0 35 U - 0.000017
0 35 G A -0.000016
0 35 G C 0.000042
0 35 G U -0.000023
0 35 G G -0.000036
0 35 G - -0.000027
0 35 - A -0.000018
0 35 - C -0.000046
0 35 - U 0.000075
0 35 - G -0.000037
0 35 - - -0.000034
0 36 A A 0.000038
0 36 A C 0.000038
0 36 A U 0.000038
0 36 A G 0.000004
0 36 A - 0.000015
0 36 C A 0.000719
0 36 C C 0.000037
0 36 C U -0.000042
0 36 C G -0.004490
0 36 C - -0.008630
0 36 U A -0.000007
0 36 U C -0.000028
0 36 U U -0.000049
0 36 U G 0.000031
0 36 U - -0.000010
0 36 G A -0.000027
0 36 G C -0.000044
0 36 G U 0.000038
0 36 G G -0.000026
0 36 G - 0.000019
0 36 - A -0.000046
0 36 - C -0.000046
0 36 - U -0.000046
0 36 - G -0.000056
0 36 - - 0.000369
0 37 A A -0.000021
0 37 A C 0.000006
0 37 A U -0.000034
0 37 A G -0.000023
0 37 A - 0.000045
0 37 C A -0.000029
0 37 C C 0.001394
0 37 C U 0.000023
0 37 C G -0.011611
0 37 C - -0.003891
0 37 U A -0.000034
0 37 U C 0.000005
0 37 U U -0.000021
0 37 U G 0.000028
0 37 U - -0.000033
0 37 G A -0.000005
0 37 G C -0.000019
0 37 G U -0.000042
0 37 G G -0.000038
0 37 G - -0.000003
0 37 - A 0.000379
0 37 - C -0.000034
0 37 - U -0.000019
0 37 - G -0.000042
0 37 - - 0.000042
0 38 A A -0.000048
0 38 A C 0.000048
0 38 A U 0.000108
0 38 A G 0.000033
0 38 A - -0.000048
0 38 C A 0.000772
0 38 C C -0.000012
0 38 C U -0.016475
0 38 C G 0.000186
0 38 C - -0.003136
0 38 U A -0.000017
0 38 U C 0.000047
0 38 U U -0.000045
0 38 U G 0.000010
0 38 U - -0.000006
0 38 G A 0.000050
0 38 G C -0.000041
0 38 G U 0.000054
0 38 G G 0.000046
0 38 G - -0.000004
0 38 - A -0.000036
0 38 - C 0.000050
0 38 - U 0.000097
0 38 - G 0.000033
0 38 - - -0.000006
0 39 A A 0.000150
0 39 A C 0.000021
0 39 A U 0.000039
0 39 A G -0.000039
0 39 A - -0.000011
0 39 C A -0.002597
0 39 C C 0.000005
0 39 C U 0.000033
0 39 C G -0.000036
0 39 C - -0.004300
0 39 U A 0.000048
0 39 U C -0.000040
0 39 U U 0.000044
0 39 U G -0.000029
0 39 U - 0.000035
0 39 G A 0.000003
0 39 G C 0.000041
0 39 G U 0.000046
0 39 G G 0.000021
0 39 G - 0.000020
0 39 - A 0.000105
0 39 - C -0.000039
0 39 - U 0.000039
0 39 - G -0.000043
0 39 - - 0.000037
0 40 A A -0.000037
0 40 A C 0.000147
0 40 A U 0.000044
0 40 A G 0.000042
0 40 A - 0.000026
0 40 C A 0.001423
0 40 C C -0.005077
0 40 C U -0.000001
0 40 C G 0.000005
0 40 C - -0.004257
0 40 U A -0.000040
0 40 U C 0.000038
0 40 U U -0.000018
0 40 U G 0.000044
0 40 U - -0.000039
0 40 G A -0.000031
0 40 G C 0.000067
0 40 G U 0.000044
0 40 G G -0.000038
0 40 G - 0.000014
0 40 - A 0.000044
0 40 - C 0.000079
0 40 - U -0.000039
0 40 - G -0.000026
0 40 - - -0.000042
0 41 A A -0.000016
0 41 A C 0.000020
0 41 A U 0.000147
0 41 A G -0.000031
0 41 A - 0.000013
0 41 C A 0.000443
0 41 C C 0.000734
0 41 C U -0.010643
0 41 C G 0.000987
0 41 C - -0.003763
0 41 U A -0.000020
0 41 U C -0.000031
0 41 U U 0.000036
0 41 U G -0.000001
0 41 U - 0.000003
0 41 G A -0.000000
0 41 G C -0.000031
0 41 G U 0.000040
0 41 G G 0.000001
0 41 G - -0.000045
0 41 - A 0.000018
0 41 - C -0.000014
0 41 - U 0.000081
0 41 - G -0.000031
0 41 - - 0.000035
0 42 A A 0.000040
0 42 A C 0.000040
0 42 A U -0.000049
0 42 A G 0.000120
0 42 A - -0.000057
0 42 C A 0.000006
0 42 C C 0.000038
0 42 C U -0.000000
0 42 C G -0.006437
0 42 C - -0.004984
0 42 U A 0.000040
0 42 U C -0.000043
0 42 U U -0.000023
0 42 U G -0.000026
0 42 U - -0.000008
0 42 G A -0.000030
0 42 G C 0.000057
0 42 G U -0.000025
0 42 G G -0.000021
0 42 G - 0.000042
0 42 - A 0.000387
0 42 - C 0.000040
0 42 - U -0.000024
0 42 - G 0.000020
0 42 - - -0.000037
0 43 A A 0.000016
0 43 A C 0.000144
0 43 A U 0.000016
0 43 A G 0.000022
0 43 A - 0.000031
0 43 C A 0.000021
0 43 C C -0.004930
0 43 C U -0.000002
0 43 C G 0.001113
0 43 C - -0.006430
0 43 U A 0.000016
0 43 U C 0.000000
0 43 U U 0.000016
0 43 U G 0.000032
0 43 U - -0.000045
0 43 G A 0.000032
0 43 G C 0.000015
0 43 G U 0.000039
0 43 G G 0.000016
0 43 G - 0.000023
0 43 - A 0.000430
0 43 - C -0.000000
0 43 - U 0.000039
0 43 - G 0.000016
0 43 - - 0.000039
0 44 A A 0.000027
0 44 A C 0.000073
0 44 A U 0.000034
0 44 A G 0.000027
0 44 A - -0.000028
0 44 C A 0.002524
0 44 C C -0.008851
0 44 C U 0.000007
0 44 C G -0.000048
0 44 C - -0.004062
0 44 U A 0.000027
0 44 U C -0.000006
0 44 U U -0.000033
0 44 U G 0.000027
0 44 U - -0.000019
0 44 G A 0.000027
0 44 G C 0.000047
0 44 G U -0.000039
0 44 G G -0.000007
0 44 G - -0.000038
0 44 - A -0.000041
0 44 - C -0.000020
0 44 - U -0.000029
0 44 - G -0.000042
0 44 - - 0.000380
0 45 A A -0.000042
0 45 A C -0.000020
0 45 A U 0.000084
0 45 A G -0.000039
0 45 A - 0.000009
0 45 C A 0.000683
0 45 C C -0.000049
0 45 C U -0.003415
0 45 C G 0.001032
0 45 C - -0.003112
0 45 U A 0.000047
0 45 U C -0.000043
0 45 U U 0.000024
0 45 U G -0.000033
0 45 U - 0.000042
0 45 G A -0.000041
0 45 G C -0.000045
0 45 G U -0.000028
0 45 G G -0.000042
0 45 G - -0.000030
0 45 - A 0.000461
0 45 - C 0.000047
0 45 - U -0.000061
0 45 - G -0.000043
0 45 - - -0.000035
0 46 A A -0.000007
0 46 A C -0.000026
0 46 A U -0.000016
0 46 A G 0.000140
0 46 A - -0.000036
0 46 C A 0.001126
0 46 C C 0.000045
0 46 C U 0.000041
0 46 C G -0.009007
0 46 C - -0.008614
0 46 U A -0.000026
0 46 U C -0.000016
0 46 U U -0.000026
0 46 U G 0.000038
0 46 U - -0.000049
0 46 G A 0.000004
0 46 G C -0.000000
0 46 G U -0.000026
0 46 G G -0.000023
0 46 G - -0.000040
0 46 - A -0.000010
0 46 - C -0.000009
0 46 - U -0.000026
0 46 - G -0.000019
0 46 - - 0.000378
0 47 A A 0.000108
0 47 A C -0.000034
0 47 A U 0.000017
0 47 A G -0.000034
0 47 A - -0.000052
0 47 C A -0.008659
0 47 C C -0.000017
0 47 C U 0.000004
0 47 C G 0.000042
0 47 C - -0.004132
0 47 U A 0.000041
0 47 U C -0.000034
0 47 U U -0.000018
0 47 U G -0.000001
0 47 U - -0.000005
0 47 G A -0.000004
0 47 G C -0.000034
0 47 G U -0.000020
0 47 G G 0.000012
0 47 G - 0.000014
0 47 - A -0.000057
0 47 - C -0.000034
0 47 - U -0.000018
0 47 - G -0.000034
0 47 - - 0.000430
0 48 A A -0.000042
0 48 A C -0.000042
0 48 A U 0.000109
0 48 A G -0.000047
0 48 A - 0.000025
0 48 C A -0.000005
0 48 C C -0.000049
0 48 C U -0.004145
0 48 C G 0.000036
0 48 C - -0.005086
0 48 U A -0.000047
0 48 U C -0.000047
0 48 U U 0.000016
0 48 U G -0.000043
0 48 U - 0.000004
0 48 G A -0.000042
0 48 G C -0.000047
0 48 G U 0.000036
0 48 G G -0.000047
0 48 G - -0.000043
0 48 - A -0.000041
0 48 - C -0.000042
0 48 - U -0.000063
0 48 - G -0.000047
0 48 - - 0.000425
0 49 A A 0.000155
0 49 A C 0.000027
0 49 A U 0.000027
0 49 A G 0.000044
0 49 A - -0.000004
0 49 C A -0.007409
0 49 C C 0.000003
0 49 C U 0.000398
0 49 C G 0.000049
0 49 C - -0.005171
0 49 U A -0.000032
0 49 U C 0.000027
0 49 U U -0.000045
0 49 U G -0.000032
0 49 U - -0.000001
0 49 G A -0.000019
0 49 G C 0.000066
0 49 G U 0.000044
0 49 G G -0.000049
0 49 G - 0.000034
0 49 - A 0.000084
0 49 - C 0.000027
0 49 - U 0.000027
0 49 - G 0.000027
0 49 - - -0.000007
0 50 A A -0.000003
0 50 A C -0.000010
0 50 A U 0.000027
0 50 A G 0.000086
0 50 A - 0.000022
0 50 C A 0.000043
0 50 C C 0.000023
0 50 C U 0.000661
0 50 C G -0.002992
0 50 C - -0.007076
0 50 U A -0.000005
0 50 U C -0.000028
0 50 U U -0.000007
0 50 U G 0.000020
0 50 U - 0.000034
0 50 G A -0.000005
0 50 G C 0.000018
0 50 G U 0.000007
0 50 G G 0.000006
0 50 G - -0.000029
0 50 - A -0.000009
0 50 - C -0.000028
0 50 - U -0.000028
0 50 - G -0.000042
0 50 - - 0.000456
0 51 A A -0.000034
0 51 A C -0.000007
0 51 A U -0.000034
0 51 A G 0.000125
0 51 A - -0.000051
0 51 C A 0.000050
0 51 C C 0.000454
0 51 C U -0.000048
0 51 C G -0.006842
0 51 C - -0.004117
0 51 U A -0.000014
0 51 U C -0.000034
0 51 U U -0.000034
0 51 U G 0.000011
0 51 U - -0.000021
0 51 G A -0.000034
0 51 G C -0.000034
0 51 G U 0.000007
0 51 G G 0.000057
0 51 G - -0.000047
0 51 - A -0.000014
0 51 - C 0.000004
0 51 - U -0.000034
0 51 - G -0.000073
0 51 - - 0.000442
0 52 A A 0.000029
0 52 A C 0.000029
0 52 A U 0.000029
0 52 A G 0.000101
0 52 A - -0.000058
0 52 C A 0.000021
0 52 C C -0.000027
0 52 C U 0.000043
0 52 C G -0.001818
0 52 C - -0.007769
0 52 U A 0.000029
0 52 U C 0.000046
0 52 U U 0.000029
0 52 U G -0.000011
0 52 U - -0.000012
0 52 G A 0.000029
0 52 G C 0.000040
0 52 G U 0.000044
0 52 G G -0.000027
0 52 G - -0.000010
0 52 - A 0.000029
0 52 - C -0.000035
0 52 - U -0.000039
0 52 - G -0.000013
0 52 - - 0.000423
0 53 A A -0.000005
0 53 A C -0.000013
0 53 A U 0.000098
0 53 A G -0.000015
0 53 A - -0.000041
0 53 C A 0.000035
0 53 C C 0.000047
0 53 C U -0.001757
0 53 C G -0.000033
0 53 C - -0.003536
0 53 U A -0.000013
0 53 U C -0.000015
0 53 U U -0.000004
0 53 U G -0.000015
0 53 U - -0.000002
0 53 G A -0.000015
0 53 G C -0.000015
0 53 G U 0.000070
0 53 G G -0.000003
0 53 G - -0.000033
0 53 - A -0.000015
0 53 - C -0.000011
0 53 - U -0.000042
0 53 - G 0.000001
0 53 - - 0.000407
0 54 A A 0.000043
0 54 A C 0.000023
0 54 A U 0.000039
0 54 A G 0.000079
0 54 A - -0.000004
0 54 C A -0.000036
0 54 C C 0.000754
0 54 C U -0.000043
0 54 C G -0.011366
0 54 C - -0.007640
0 54 U A 0.000039
0 54 U C 0.000038
0 54 U U 0.000036
0 54 U G -0.000004
0 54 U - -0.000040
0 54 G A 0.000023
0 54 G C 0.000036
0 54 G U 0.000023
0 54 G G 0.000042
0 54 G - 0.000012
0 54 - A -0.000045
0 54 - C 0.000023
0 54 - U 0.000040
0 54 - G -0.000049
0 54 - - 0.000273
0 55 A A -0.000044
0 55 A C 0.000108
0 55 A U 0.000016
0 55 A G 0.000016
0 55 A - -0.000023
0 55 C A 0.000901
0 55 C C -0.004018
0 55 C U -0.000025
0 55 C G 0.001050
0 55 C - -0.011169
0 55 U A 0.000016
0 55 U C -0.000048
0 55 U U 0.000016
0 55 U G 0.000016
0 55 U - -0.000032
0 55 G A -0.000044
0 55 G C -0.000021
0 55 G U -0.000045
0 55 G G 0.000041
0 55 G - 0.000021
0 55 - A 0.000016
0 55 - C 0.000031
0 55 - U -0.000049
0 55 - G 0.000047
0 55 - - 0.000268
0 56 A A -0.000026
0 56 A C -0.000026
0 56 A U 0.000102
0 56 A G -0.000010
0 56 A - 0.000026
0 56 C A 0.001322
0 56 C C 0.000873
0 56 C U -0.001443
0 56 C G 0.000042
0 56 C - -0.010048
0 56 U A -0.000010
0 56 U C 0.000003
0 56 U U 0.000026
0 56 U G -0.000005
0 56 U - -0.000038
0 56 G A -0.000010
0 56 G C -0.000026
0 56 G U 0.000053
0 56 G G 0.000004
0 56 G - -0.000029
0 56 - A -0.000026
0 56 - C -0.000001
0 56 - U -0.000010
0 56 - G -0.000026
0 56 - - 0.000266
0 57 A A -0.000049
0 57 A C 0.000034
0 57 A U 0.000160
0 57 A G 0.000034
0 57 A - 0.000034
0 57 C A 0.001891
0 57 C C 0.000761
0 57 C U -0.003010
0 57 C G 0.000003
0 57 C - -0.010000
0 57 U A -0.000038
0 57 U C 0.000034
0 57 U U -0.000031
0 57 U G -0.000049
0 57 U - 0.000024
0 57 G A -0.000048
0 57 G C 0.000023
0 57 G U 0.000031
0 57 G G 0.000034
0 57 G - -0.000035
0 57 - A -0.000012
0 57 - C -0.000006
0 57 - U -0.000030
0 57 - G 0.000034
0 57 - - 0.000252
0 58 A A -0.000039
0 58 A C 0.000043
0 58 A U 0.000043
0 58 A G 0.000155
0 58 A - 0.000015
0 58 C A -0.000007
0 58 C C 0.000041
0 58 C U -0.000007
0 58 C G -0.003712
0 58 C - -0.012284
0 58 U A -0.000040
0 58 U C 0.000043
0 58 U U 0.000043
0 58 U G 0.000037
0 58 U - 0.000010
0 58 G A 0.000043
0 58 G C -0.000027
0 58 G U 0.000043
0 58 G G 0.000044
0 58 G - -0.000014
0 58 - A 0.000043
0 58 - C -0.000039
0 58 - U 0.000043
0 58 - G 0.000035
0 58 - - 0.000253
0 59 A A -0.000001
0 59 A C 0.000176
0 59 A U 0.000015
0 59 A G -0.000001
0 59 A - -0.000036
0 59 C A 0.000473
0 59 C C -0.001196
0 59 C U -0.000009
0 59 C G -0.000034
0 59 C - -0.018939
0 59 U A -0.000001
0 59 U C -0.000008
0 59 U U -0.000001
0 59 U G 0.000014
0 59 U - -0.000024
0 59 G A -0.000001
0 59 G C -0.000004
0 59 G U 0.000031
0 59 G G 0.000023
0 59 G - 0.000002
0 59 - A -0.000001
0 59 - C 0.000034
0 59 - U -0.000001
0 59 - G -0.000001
0 59 - - 0.000290
0 60 A A -0.000031
0 60 A C -0.000020
0 60 A U -0.000008
0 60 A G 0.000144
0 60 A - 0.000036
0 60 C A -0.000052
0 60 C C -0.000047
0 60 C U 0.000891
0 60 C G -0.003732
0 60 C - -0.014914
0 60 U A -0.000001
0 60 U C 0.000006
0 60 U U -0.000031
0 60 U G 0.000028
0 60 U - -0.000015
0 60 G A -0.000017
0 60 G C -0.000014
0 60 G U -0.000031
0 60 G G 0.000021
0 60 G - 0.000045
0 60 - A -0.000014
0 60 - C 0.000001
0 60 - U -0.000015
0 60 - G -0.000036
0 60 - - 0.000216
0 61 A A -0.000024
0 61 A C 0.000002
0 61 A U -0.000010
0 61 A G 0.000105
0 61 A - -0.000021
0 61 C A -0.004037
0 61 C C 0.000094
0 61 C U 0.002251
0 61 C G -0.000024
0 61 C - -0.010370
0 61 U A 0.000023
0 61 U C -0.000010
0 61 U U -0.000010
0 61 U G 0.000006
0 61 U - -0.000027
0 61 G A 0.000030
0 61 G C -0.000010
0 61 G U 0.000005
0 61 G G -0.000036
0 61 G - 0.000008
0 61 - A -0.000054
0 61 - C -0.000010
0 61 - U 0.000002
0 61 - G 0.000002
0 61 - - 0.000212
0 62 A A -0.000036
0 62 A C -0.000018
0 62 A U -0.000036
0 62 A G 0.000080
0 62 A - -0.000031
0 62 C A 0.000850
0 62 C C 0.000029
0 62 C U 0.000444
0 62 C G -0.007905
0 62 C - -0.010882
0 62 U A -0.000036
0 62 U C -0.000036
0 62 U U -0.000036
0 62 U G 0.000040
0 62 U - -0.000036
0 62 G A -0.000036
0 62 G C -0.000000
0 62 G U -0.000003
0 62 G G 0.000066
0 62 G - 0.000002
0 62 - A 0.000426
0 62 - C -0.000002
0 62 - U -0.000019
0 62 - G 0.000006
0 62 - - -0.000056
0 63 A A -0.000035
0 63 A C 0.000000
0 63 A U -0.000048
0 63 A G 0.000090
0 63 A - -0.000060
0 63 C A 0.002765
0 63 C C 0.001056
0 63 C U -0.002282
0 63 C G -0.001756
0 63 C - -0.001346
0 63 U A -0.000050
0 63 U C -0.000044
0 63 U U -0.000023
0 63 U G 0.000034
0 63 U - -0.000046
0 63 G A 0.000000
0 63 G C -0.000035
0 63 G U 0.000048
0 63 G G -0.000004
0 63 G - 0.000006
0 63 - A -0.000028
0 63 - C 0.000004
0 63 - U -0.000047
0 63 - G 0.000008
0 63 - - 0.000237
0 64 A A -0.000000
0 64 A C -0.000000
0 64 A U 0.000016
0 64 A G 0.000175
0 64 A - -0.000054
0 64 C A 0.001218
0 64 C C 0.000002
0 64 C U 0.001314
0 64 C G -0.009027
0 64 C - -0.008425
0 64 U A -0.000000
0 64 U C 0.000039
0 64 U U -0.000000
0 64 U G 0.000002
0 64 U - 0.000003
0 64 G A 0.000021
0 64 G C 0.000009
0 64 G U -0.000000
0 64 G G -0.000004
0 64 G - -0.000042
0 64 - A 0.000015
0 64 - C 0.000015
0 64 - U 0.000008
0 64 - G -0.000043
0 64 - - 0.000286
0 65 A A -0.000032
0 65 A C 0.000073
0 65 A U -0.000009
0 65 A G -0.000032
0 65 A - -0.000024
0 65 C A 0.000671
0 65 C C -0.003478
0 65 C U 0.002415
0 65 C G -0.000039
0 65 C - -0.009998
0 65 U A -0.000013
0 65 U C -0.000019
0 65 U U -0.000013
0 65 U G -0.000013
0 65 U - -0.000032
0 65 G A -0.000010
0 65 G C 0.000015
0 65 G U -0.000012
0 65 G G -0.000032
0 65 G - -0.000047
0 65 - A -0.000032