# NB_STEPS 3000
# UP_FREQ 1000
# TEMP 1.000000
# LAMBDA 0.050000
# ID_THRES 1.000000
# ALPHA 1.151065
0 0 A A -0.003199
0 0 C C 0.002573
0 0 U U -0.006670
0 0 G G 0.002574
0 0 - - 0.027795
0 1 A A 0.000216
0 1 A C -0.000058
0 1 A U -0.000438
0 1 A G 0.000015
0 1 A - 0.000028
0 1 C A 0.000882
0 1 C C -0.000039
0 1 C U -0.042721
0 1 C G 0.000406
0 1 C - 0.000473
0 1 U A -0.000125
0 1 U C 0.000336
0 1 U U -0.003921
0 1 U G -0.000066
0 1 U - 0.000038
0 1 G A -0.000050
0 1 G C -0.000028
0 1 G U 0.008198
0 1 G G -0.000038
0 1 G - -0.000005
0 1 - A -0.000035
0 1 - C -0.000033
0 1 - U 0.001169
0 1 - G 0.000709
0 1 - - 0.000802
0 2 A A 0.000028
0 2 A C -0.000413
0 2 A U 0.000004
0 2 A G -0.000052
0 2 A - -0.000027
0 2 C A 0.000801
0 2 C C -0.031248
0 2 C U -0.000033
0 2 C G 0.000876
0 2 C - 0.001333
0 2 U A -0.000030
0 2 U C -0.007286
0 2 U U -0.000019
0 2 U G -0.000033
0 2 U - -0.000015
0 2 G A -0.000007
0 2 G C 0.013461
0 2 G U -0.000085
0 2 G G 0.000003
0 2 G - 0.000025
0 2 - A 0.000790
0 2 - C 0.003736
0 2 - U 0.000019
0 2 - G 0.000009
0 2 - - 0.000028
0 3 A A 0.000183
0 3 A C -0.000043
0 3 A U -0.003660
0 3 A G -0.000040
0 3 A - 0.000022
0 3 C A -0.000031
0 3 C C 0.000009
0 3 C U 0.001263
0 3 C G 0.000456
0 3 C - 0.000702
0 3 U A 0.000017
0 3 U C 0.000015
0 3 U U -0.007812
0 3 U G -0.000032
0 3 U - 0.000015
0 3 G A 0.000030
0 3 G C 0.000004
0 3 G U 0.000954
0 3 G G -0.000042
0 3 G - -0.000020
0 3 - A -0.000028
0 3 - C 0.001002
0 3 - U 0.019934
0 3 - G 0.000043
0 3 - - 0.000045
0 4 A A 0.000009
0 4 A C 0.000407
0 4 A U -0.003196
0 4 A G -0.000018
0 4 A - 0.000196
0 4 C A -0.000009
0 4 C C -0.000609
0 4 C U 0.002922
0 4 C G 0.000006
0 4 C - 0.000886
0 4 U A 0.000043
0 4 U C -0.000043
0 4 U U -0.006359
0 4 U G 0.000015
0 4 U - -0.000007
0 4 G A -0.000003
0 4 G C 0.000015
0 4 G U 0.002477
0 4 G G -0.000026
0 4 G - 0.000030
0 4 - A -0.000010
0 4 - C -0.000037
0 4 - U 0.003638
0 4 - G 0.000817
0 4 - - -0.000008
0 5 A A -0.003338
0 5 A C 0.000014
0 5 A U -0.000007
0 5 A G 0.000004
0 5 A - -0.000015
0 5 C A 0.002833
0 5 C C 0.000028
0 5 C U 0.000021
0 5 C G 0.000039
0 5 C - -0.000025
0 5 U A -0.009014
0 5 U C 0.000016
0 5 U U -0.000041
0 5 U G -0.000010
0 5 U - 0.000038
0 5 G A 0.003008
0 5 G C -0.000037
0 5 G U 0.000042
0 5 G G -0.000007
0 5 G - -0.000014
0 5 - A 0.027104
0 5 - C 0.000042
0 5 - U -0.000028
0 5 - G -0.000024
0 5 - - 0.000795
0 6 A A 0.000039
0 6 A C 0.000039
0 6 A U -0.007299
0 6 A G -0.000035
0 6 A - -0.000002
0 6 C A -0.000029
0 6 C C -0.000037
0 6 C U 0.002264
0 6 C G 0.000011
0 6 C - -0.000015
0 6 U A 0.000007
0 6 U C 0.000048
0 6 U U -0.006166
0 6 U G -0.000005
0 6 U - -0.000042
0 6 G A -0.000005
0 6 G C -0.000016
0 6 G U 0.001827
0 6 G G -0.000003
0 6 G - 0.000024
0 6 - A 0.000047
0 6 - C -0.000000
0 6 - U 0.034890
0 6 - G -0.000003
0 6 - - -0.000015
0 7 A A 0.000016
0 7 A C -0.002092
0 7 A U -0.000023
0 7 A G -0.000023
0 7 A - 0.000022
0 7 C A 0.000795
0 7 C C 0.001418
0 7 C U -0.000031
0 7 C G 0.000032
0 7 C - 0.000546
0 7 U A 0.000000
0 7 U C -0.022077
0 7 U U -0.000065
0 7 U G 0.000005
0 7 U - -0.000048
0 7 G A -0.000082
0 7 G C 0.007404
0 7 G U 0.000074
0 7 G G -0.000014
0 7 G - 0.000086
0 7 - A 0.000154
0 7 - C 0.000681
0 7 - U 0.001036
0 7 - G 0.000814
0 7 - - 0.000007
0 8 A A -0.003802
0 8 A C -0.000131
0 8 A U 0.000011
0 8 A G -0.000019
0 8 A - -0.000005
0 8 C A 0.003182
0 8 C C -0.143974
0 8 C U 0.001466
0 8 C G 0.000001
0 8 C - 0.000032
0 8 U A -0.003281
0 8 U C -0.000757
0 8 U U 0.000364
0 8 U G -0.000007
0 8 U - 0.000024
0 8 G A -0.000042
0 8 G C 0.000507
0 8 G U -0.000017
0 8 G G 0.000025
0 8 G - -0.000042
0 8 - A 0.000750
0 8 - C 0.002687
0 8 - U -0.000040
0 8 - G 0.000252
0 8 - - 0.000024
0 9 A A -0.003008
0 9 A C 0.000005
0 9 A U -0.000048
0 9 A G -0.000015
0 9 A - 0.000050
0 9 C A 0.003900
0 9 C C 0.000014
0 9 C U 0.000029
0 9 C G -0.000005
0 9 C - 0.000562
0 9 U A -0.012152
0 9 U C -0.000001
0 9 U U -0.000034
0 9 U G -0.000032
0 9 U - -0.000043
0 9 G A 0.000221
0 9 G C -0.000030
0 9 G U 0.000006
0 9 G G 0.000013
0 9 G - 0.000011
0 9 - A 0.006897
0 9 - C 0.000030
0 9 - U -0.000024
0 9 - G -0.000036
0 9 - - 0.000030
0 10 A A -0.000021
0 10 A C 0.000006
0 10 A U -0.000031
0 10 A G -0.005949
0 10 A - 0.000036
0 10 C A 0.000022
0 10 C C -0.000043
0 10 C U 0.000042
0 10 C G 0.002186
0 10 C - -0.000007
0 10 U A -0.000047
0 10 U C 0.000035
0 10 U U 0.000033
0 10 U G -0.007230
0 10 U - -0.000006
0 10 G A 0.000033
0 10 G C -0.000034
0 10 G U 0.000046
0 10 G G 0.003102
0 10 G - -0.000028
0 10 - A 0.000024
0 10 - C 0.000024
0 10 - U 0.000035
0 10 - G 0.030521
0 10 - - -0.000049
0 11 A A -0.002993
0 11 A C 0.000048
0 11 A U 0.000031
0 11 A G 0.000001
0 11 A - 0.000042
0 11 C A 0.002760
0 11 C C -0.000011
0 11 C U -0.000046
0 11 C G -0.000042
0 11 C - -0.000025
0 11 U A -0.006552
0 11 U C -0.000022
0 11 U U -0.000009
0 11 U G -0.000007
0 11 U - -0.000014
0 11 G A 0.003083
0 11 G C 0.000046
0 11 G U 0.000046
0 11 G G -0.000013
0 11 G - 0.000023
0 11 - A 0.034625
0 11 - C -0.000027
0 11 - U 0.000024
0 11 - G 0.000024
0 11 - - 0.000002
0 12 A A -0.000076
0 12 A C 0.000018
0 12 A U 0.000038
0 12 A G -0.000991
0 12 A - 0.000047
0 12 C A -0.000023
0 12 C C 0.000023
0 12 C U 0.000359
0 12 C G -0.009645
0 12 C - 0.000005
0 12 U A -0.000035
0 12 U C 0.000033
0 12 U U -0.000013
0 12 U G -0.005256
0 12 U - 0.000007
0 12 G A -0.000054
0 12 G C 0.000002
0 12 G U 0.000022
0 12 G G 0.012686
0 12 G - 0.000017
0 12 - A -0.000033
0 12 - C -0.000043
0 12 - U 0.000012
0 12 - G 0.003624
0 12 - - 0.000040
0 13 A A -0.000554
0 13 A C -0.000041
0 13 A U 0.000552
0 13 A G -0.000034
0 13 A - 0.000044
0 13 C A 0.007390
0 13 C C 0.000037
0 13 C U -0.002922
0 13 C G 0.000992
0 13 C - 0.001234
0 13 U A -0.277815
0 13 U C 0.002085
0 13 U U -0.000082
0 13 U G -0.000023
0 13 U - 0.000053
0 13 G A 0.003208
0 13 G C 0.000143
0 13 G U 0.000063
0 13 G G -0.000062
0 13 G - 0.000012
0 13 - A 0.000925
0 13 - C 0.001301
0 13 - U 0.000050
0 13 - G 0.000004
0 13 - - 0.000871
0 14 A A 0.000014
0 14 A C -0.000039
0 14 A U 0.000021
0 14 A G -0.002241
0 14 A - -0.000043
0 14 C A -0.000008
0 14 C C -0.000029
0 14 C U -0.000009
0 14 C G -0.050087
0 14 C - 0.000950
0 14 U A -0.000056
0 14 U C -0.000037
0 14 U U -0.000022
0 14 U G -0.005070
0 14 U - 0.000020
0 14 G A 0.000021
0 14 G C 0.000033
0 14 G U -0.000014
0 14 G G 0.005642
0 14 G - 0.000030
0 14 - A 0.000708
0 14 - C -0.000040
0 14 - U -0.000026
0 14 - G 0.019251
0 14 - - 0.000027
0 15 A A 0.000003
0 15 A C -0.000044
0 15 A U 0.000033
0 15 A G -0.001324
0 15 A - 0.000043
0 15 C A -0.000003
0 15 C C 0.000442
0 15 C U 0.000039
0 15 C G -0.003744
0 15 C - 0.001000
0 15 U A -0.000324
0 15 U C 0.000029
0 15 U U 0.000038
0 15 U G -0.003389
0 15 U - -0.000019
0 15 G A 0.000024
0 15 G C 0.000041
0 15 G U -0.000014
0 15 G G 0.002778
0 15 G - 0.000049
0 15 - A 0.000049
0 15 - C -0.000033
0 15 - U -0.000040
0 15 - G 0.004563
0 15 - - 0.000027
0 16 A A -0.000041
0 16 A C -0.000370
0 16 A U -0.001386
0 16 A G -0.000046
0 16 A - -0.000038
0 16 C A 0.001101
0 16 C C -0.000283
0 16 C U 0.000873
0 16 C G 0.000246
0 16 C - 0.000030
0 16 U A -0.000029
0 16 U C -0.003517
0 16 U U -0.002462
0 16 U G 0.000577
0 16 U - 0.000035
0 16 G A -0.000002
0 16 G C -0.000033
0 16 G U 0.000419
0 16 G G -0.000032
0 16 G - -0.000047
0 16 - A -0.000042
0 16 - C 0.000989
0 16 - U 0.002734
0 16 - G 0.000005
0 16 - - -0.000009
0 17 A A -0.000022
0 17 A C -0.000037
0 17 A U -0.000014
0 17 A G -0.000236
0 17 A - 0.000047
0 17 C A -0.000090
0 17 C C 0.001084
0 17 C U 0.001652
0 17 C G 0.000492
0 17 C - -0.000050
0 17 U A 0.000014
0 17 U C 0.000001
0 17 U U -0.000013
0 17 U G -0.007315
0 17 U - -0.000003
0 17 G A 0.000051
0 17 G C 0.000016
0 17 G U 0.000007
0 17 G G 0.002411
0 17 G - -0.000011
0 17 - A 0.000025
0 17 - C -0.000036
0 17 - U -0.000042
0 17 - G 0.003580
0 17 - - -0.000021
0 18 A A -0.000046
0 18 A C 0.000004
0 18 A U -0.000031
0 18 A G -0.004478
0 18 A - -0.000045
0 18 C A -0.000021
0 18 C C -0.000021
0 18 C U 0.000018
0 18 C G 0.002648
0 18 C - 0.000038
0 18 U A 0.000023
0 18 U C 0.000040
0 18 U U 0.000038
0 18 U G -0.008905
0 18 U - -0.000013
0 18 G A -0.000012
0 18 G C -0.000020
0 18 G U 0.000014
0 18 G G 0.001436
0 18 G - 0.000020
0 18 - A 0.000013
0 18 - C -0.000003
0 18 - U 0.000047
0 18 - G 0.008474
0 18 - - -0.000027
0 19 A A -0.005793
0 19 A C 0.000010
0 19 A U 0.000002
0 19 A G -0.000039
0 19 A - -0.000049
0 19 C A 0.001614
0 19 C C 0.000045
0 19 C U -0.000027
0 19 C G 0.000032
0 19 C - -0.000020
0 19 U A -0.008934
0 19 U C 0.000540
0 19 U U 0.000002
0 19 U G 0.000002
0 19 U - -0.000004
0 19 G A 0.000676
0 19 G C -0.000017
0 19 G U -0.000020
0 19 G G 0.000002
0 19 G - -0.000034
0 19 - A 0.046306
0 19 - C -0.000006
0 19 - U 0.000023
0 19 - G -0.000021
0 19 - - -0.000021
0 20 A A 0.000030
0 20 A C 0.000044
0 20 A U 0.000022
0 20 A G -0.003116
0 20 A - 0.000043
0 20 C A -0.000032
0 20 C C -0.000041
0 20 C U -0.000001
0 20 C G 0.002784
0 20 C - -0.000033
0 20 U A 0.000012
0 20 U C 0.000041
0 20 U U -0.000007
0 20 U G -0.007071
0 20 U - 0.000020
0 20 G A 0.000020
0 20 G C -0.000048
0 20 G U -0.000039
0 20 G G 0.002970
0 20 G - 0.000020
0 20 - A 0.000043
0 20 - C 0.001682
0 20 - U 0.000020
0 20 - G 0.026410
0 20 - - -0.000049
0 21 A A -0.000025
0 21 A C 0.000008
0 21 A U -0.000011
0 21 A G -0.001728
0 21 A - -0.000047
0 21 C A 0.001318
0 21 C C -0.000018
0 21 C U 0.000021
0 21 C G 0.001463
0 21 C - 0.000002
0 21 U A -0.000037
0 21 U C -0.000045
0 21 U U 0.000008
0 21 U G -0.020599
0 21 U - 0.000040
0 21 G A 0.000002
0 21 G C -0.000049
0 21 G U 0.000043
0 21 G G 0.007681
0 21 G - 0.000001
0 21 - A 0.000978
0 21 - C 0.000049
0 21 - U 0.000024
0 21 - G 0.008660
0 21 - - -0.000036
0 22 A A -0.000012
0 22 A C 0.000023
0 22 A U -0.000039
0 22 A G -0.004971
0 22 A - 0.000002
0 22 C A -0.000015
0 22 C C 0.000021
0 22 C U -0.000032
0 22 C G 0.002189
0 22 C - 0.000674
0 22 U A 0.000003
0 22 U C -0.000034
0 22 U U -0.000014
0 22 U G -0.007892
0 22 U - -0.000038
0 22 G A -0.000007
0 22 G C 0.000024
0 22 G U -0.000017
0 22 G G 0.002294
0 22 G - 0.000033
0 22 - A -0.000008
0 22 - C -0.000014
0 22 - U 0.000040
0 22 - G 0.017610
0 22 - - 0.000031
0 23 A A -0.005613
0 23 A C 0.000035
0 23 A U 0.000011
0 23 A G 0.000011
0 23 A - -0.000038
0 23 C A 0.001036
0 23 C C -0.000041
0 23 C U 0.000030
0 23 C G 0.000874
0 23 C - -0.000041
0 23 U A -0.006593
0 23 U C -0.000040
0 23 U U 0.000026
0 23 U G 0.000493
0 23 U - -0.000010
0 23 G A 0.001474
0 23 G C -0.000018
0 23 G U -0.000030
0 23 G G -0.000020
0 23 G - 0.000021
0 23 - A 0.013472
0 23 - C -0.000021
0 23 - U -0.000017
0 23 - G 0.000043
0 23 - - 0.000043
0 24 A A 0.000012
0 24 A C -0.001017
0 24 A U 0.000167
0 24 A G -0.000024
0 24 A - 0.000045
0 24 C A -0.000817
0 24 C C 0.002629
0 24 C U 0.000689
0 24 C G -0.000016
0 24 C - 0.001370
0 24 U A -0.000015
0 24 U C -0.033973
0 24 U U -0.000163
0 24 U G 0.000585
0 24 U - -0.000037
0 24 G A -0.000015
0 24 G C -0.000107
0 24 G U -0.000058
0 24 G G 0.000013
0 24 G - 0.000020
0 24 - A -0.000012
0 24 - C 0.003668
0 24 - U 0.001015
0 24 - G -0.000015
0 24 - - -0.000018
0 25 A A -0.000265
0 25 A C -0.000011
0 25 A U -0.000699
0 25 A G 0.000056
0 25 A - 0.000032
0 25 C A 0.000196
0 25 C C -0.001178
0 25 C U 0.002142
0 25 C G 0.000529
0 25 C - 0.001537
0 25 U A -0.000780
0 25 U C 0.000510
0 25 U U -0.057623
0 25 U G -0.000005
0 25 U - -0.000031
0 25 G A 0.000356
0 25 G C -0.000040
0 25 G U 0.001708
0 25 G G 0.000015
0 25 G - -0.000032
0 25 - A -0.000040
0 25 - C 0.000665
0 25 - U 0.003680
0 25 - G -0.000030
0 25 - - -0.000007
0 26 A A 0.000028
0 26 A C -0.000040
0 26 A U -0.000036
0 26 A G -0.003591
0 26 A - 0.000049
0 26 C A 0.000109
0 26 C C 0.000909
0 26 C U -0.000071
0 26 C G 0.000794
0 26 C - -0.000003
0 26 U A 0.000030
0 26 U C 0.000519
0 26 U U -0.000040
0 26 U G -0.010740
0 26 U - 0.000043
0 26 G A 0.000021
0 26 G C 0.000033
0 26 G U 0.000016
0 26 G G 0.002463
0 26 G - 0.000022
0 26 - A 0.000152
0 26 - C 0.000014
0 26 - U 0.000030
0 26 - G 0.014327
0 26 - - -0.000047
0 27 A A -0.000055
0 27 A C 0.000029
0 27 A U 0.000010
0 27 A G -0.001354
0 27 A - -0.000010
0 27 C A -0.000064
0 27 C C 0.000012
0 27 C U 0.000003
0 27 C G 0.000368
0 27 C - 0.000938
0 27 U A -0.000071
0 27 U C 0.000025
0 27 U U 0.000049
0 27 U G -0.005094
0 27 U - 0.000036
0 27 G A 0.000041
0 27 G C 0.000045
0 27 G U 0.000013
0 27 G G -0.000089
0 27 G - -0.000005
0 27 - A 0.000032
0 27 - C 0.000005
0 27 - U -0.000050
0 27 - G 0.006872
0 27 - - 0.000010
0 28 A A -0.000008
0 28 A C -0.004790
0 28 A U 0.000041
0 28 A G 0.000042
0 28 A - 0.000004
0 28 C A 0.000019
0 28 C C 0.001238
0 28 C U 0.000967
0 28 C G 0.000662
0 28 C - 0.000024
0 28 U A -0.000028
0 28 U C -0.007387
0 28 U U 0.000035
0 28 U G -0.000022
0 28 U - -0.000049
0 28 G A 0.000024
0 28 G C 0.002278
0 28 G U 0.000046
0 28 G G 0.000029
0 28 G - -0.000011
0 28 - A 0.000024
0 28 - C 0.018789
0 28 - U -0.000040
0 28 - G -0.000020
0 28 - - 0.000009
0 29 A A -0.000023
0 29 A C -0.001869
0 29 A U 0.000001
0 29 A G 0.000040
0 29 A - -0.000044
0 29 C A 0.000025
0 29 C C 0.001456
0 29 C U 0.000145
0 29 C G 0.000046
0 29 C - 0.000343
0 29 U A 0.000021
0 29 U C -0.022226
0 29 U U -0.000031
0 29 U G 0.000005
0 29 U - -0.000010
0 29 G A 0.000016
0 29 G C 0.008868
0 29 G U -0.000058
0 29 G G 0.000017
0 29 G - -0.000005
0 29 - A 0.000007
0 29 - C 0.015952
0 29 - U 0.001013
0 29 - G 0.000009
0 29 - - 0.000023
0 30 A A -0.000005
0 30 A C -0.002564
0 30 A U -0.000053
0 30 A G -0.000046
0 30 A - -0.000028
0 30 C A -0.000011
0 30 C C 0.002686
0 30 C U 0.000022
0 30 C G 0.000025
0 30 C - -0.000027
0 30 U A -0.000030
0 30 U C -0.005512
0 30 U U -0.000046
0 30 U G 0.000044
0 30 U - 0.000047
0 30 G A -0.000035
0 30 G C 0.003306
0 30 G U -0.000001
0 30 G G 0.000017
0 30 G - -0.000002
0 30 - A -0.000019
0 30 - C 0.018688
0 30 - U -0.000023
0 30 - G -0.000005
0 30 - - 0.000048
0 31 A A 0.000009
0 31 A C -0.000001
0 31 A U -0.000610
0 31 A G -0.000323
0 31 A - -0.000046
0 31 C A 0.000721
0 31 C C 0.000859
0 31 C U 0.001421
0 31 C G -0.001209
0 31 C - 0.000742
0 31 U A 0.000176
0 31 U C 0.000002
0 31 U U -0.010417
0 31 U G -0.000262
0 31 U - -0.000045
0 31 G A 0.000033
0 31 G C -0.000013
0 31 G U -0.000005
0 31 G G -0.000050
0 31 G - 0.000023
0 31 - A -0.000016
0 31 - C 0.000003
0 31 - U 0.002184
0 31 - G 0.000554
0 31 - - 0.000825
0 32 A A -0.001701
0 32 A C -0.000003
0 32 A U -0.000014
0 32 A G -0.000064
0 32 A - 0.000027
0 32 C A -0.000234
0 32 C C 0.002345
0 32 C U -0.000056
0 32 C G -0.000083
0 32 C - 0.000866
0 32 U A -0.002193
0 32 U C 0.000029
0 32 U U -0.000091
0 32 U G -0.000985
0 32 U - 0.000026
0 32 G A 0.001012
0 32 G C -0.000013
0 32 G U 0.000026
0 32 G G 0.000524
0 32 G - -0.000003
0 32 - A 0.001183
0 32 - C -0.000005
0 32 - U 0.001674
0 32 - G 0.000016
0 32 - - -0.000005
0 33 A A -0.000028
0 33 A C -0.000018
0 33 A U -0.002097
0 33 A G -0.000002
0 33 A - -0.000026
0 33 C A 0.000262
0 33 C C 0.000808
0 33 C U -0.005154
0 33 C G -0.000028
0 33 C - 0.001058
0 33 U A 0.000026
0 33 U C -0.000106
0 33 U U -0.006183
0 33 U G 0.000040
0 33 U - -0.000017
0 33 G A -0.000032
0 33 G C -0.000015
0 33 G U 0.003330
0 33 G G 0.000006
0 33 G - -0.000002
0 33 - A -0.000027
0 33 - C 0.000013
0 33 - U 0.002580
0 33 - G 0.000050
0 33 - - 0.000815
0 34 A A 0.000018
0 34 A C 0.000007
0 34 A U 0.000006
0 34 A G -0.009349
0 34 A - -0.000040
0 34 C A 0.000032
0 34 C C -0.000044
0 34 C U -0.000029
0 34 C G 0.001086
0 34 C - -0.000031
0 34 U A 0.000015
0 34 U C -0.000042
0 34 U U 0.000047
0 34 U G -0.005943
0 34 U - 0.000028
0 34 G A -0.000012
0 34 G C 0.000043
0 34 G U -0.000005
0 34 G G 0.003329
0 34 G - -0.000010
0 34 - A -0.000009
0 34 - C -0.000050
0 34 - U -0.000011
0 34 - G 0.022384
0 34 - - 0.000013
0 35 A A -0.006280
0 35 A C -0.000004
0 35 A U -0.000024
0 35 A G 0.000028
0 35 A - -0.000028
0 35 C A 0.001332
0 35 C C -0.000007
0 35 C U 0.000022
0 35 C G 0.000005
0 35 C - 0.000483
0 35 U A -0.006174
0 35 U C -0.000049
0 35 U U -0.000022
0 35 U G -0.000008
0 35 U - 0.000038
0 35 G A 0.001877
0 35 G C -0.000040
0 35 G U -0.000027
0 35 G G -0.000021
0 35 G - -0.000051
0 35 - A 0.046698
0 35 - C 0.000026
0 35 - U 0.000041
0 35 - G 0.000026
0 35 - - -0.000043
0 36 A A -0.000464
0 36 A C -0.000058
0 36 A U 0.000018
0 36 A G -0.000047
0 36 A - -0.000023
0 36 C A -0.017206
0 36 C C -0.000068
0 36 C U 0.003875
0 36 C G -0.000044
0 36 C - 0.000898
0 36 U A -0.001830
0 36 U C -0.000285
0 36 U U -0.000205
0 36 U G 0.000044
0 36 U - 0.000015
0 36 G A 0.000725
0 36 G C -0.000050
0 36 G U -0.000011
0 36 G G 0.000043
0 36 G - -0.000000
0 36 - A 0.002221
0 36 - C 0.000958
0 36 - U 0.000632
0 36 - G 0.000005
0 36 - - 0.000002
0 37 A A -0.003041
0 37 A C -0.000005
0 37 A U -0.000053
0 37 A G -0.000266
0 37 A - -0.000028
0 37 C A 0.002709
0 37 C C 0.000000
0 37 C U 0.000001
0 37 C G -0.001192
0 37 C - -0.000028
0 37 U A -0.001166
0 37 U C 0.000128
0 37 U U 0.000017
0 37 U G -0.005339
0 37 U - -0.000047
0 37 G A 0.000366
0 37 G C 0.000015
0 37 G U -0.000006
0 37 G G -0.000013
0 37 G - 0.000030
0 37 - A 0.000788
0 37 - C -0.000014
0 37 - U -0.000015
0 37 - G 0.002631
0 37 - - 0.000025
0 38 A A 0.000018
0 38 A C -0.001939
0 38 A U -0.000057
0 38 A G -0.000020
0 38 A - 0.000047
0 38 C A 0.000908
0 38 C C -0.000571
0 38 C U -0.000011
0 38 C G 0.000437
0 38 C - -0.000028
0 38 U A -0.000031
0 38 U C -0.003173
0 38 U U -0.000758
0 38 U G -0.000032
0 38 U - -0.000048
0 38 G A -0.000028
0 38 G C 0.002748
0 38 G U 0.000004
0 38 G G -0.000024
0 38 G - 0.000036
0 38 - A -0.000004
0 38 - C 0.004567
0 38 - U 0.000042
0 38 - G -0.000039
0 38 - - 0.000050
0 39 A A 0.000041
0 39 A C -0.002000
0 39 A U -0.000014
0 39 A G 0.000293
0 39 A - -0.000021
0 39 C A 0.000957
0 39 C C -0.027551
0 39 C U 0.000893
0 39 C G 0.000028
0 39 C - -0.000027
0 39 U A -0.000036
0 39 U C -0.006486
0 39 U U -0.000010
0 39 U G 0.000026
0 39 U - -0.000049
0 39 G A -0.000010
0 39 G C 0.005562
0 39 G U -0.000016
0 39 G G 0.000016
0 39 G - -0.000003
0 39 - A 0.000030
0 39 - C 0.009306
0 39 - U -0.000030
0 39 - G -0.000022
0 39 - - -0.000030
0 40 A A 0.000050
0 40 A C -0.000951
0 40 A U -0.000011
0 40 A G -0.000031
0 40 A - 0.000046
0 40 C A 0.000025
0 40 C C -0.018338
0 40 C U -0.000065
0 40 C G 0.000004
0 40 C - -0.000033
0 40 U A 0.000024
0 40 U C -0.005431
0 40 U U -0.000001
0 40 U G 0.000015
0 40 U - 0.000036
0 40 G A -0.000001
0 40 G C 0.011255
0 40 G U -0.000056
0 40 G G 0.000028
0 40 G - -0.000030
0 40 - A 0.000023
0 40 - C 0.002202
0 40 - U 0.001043
0 40 - G 0.000034
0 40 - - 0.000001
0 41 A A -0.000281
0 41 A C -0.000007
0 41 A U -0.000014
0 41 A G -0.001520
0 41 A - 0.000750
0 41 C A 0.004668
0 41 C C 0.000008
0 41 C U -0.000038
0 41 C G -0.054808
0 41 C - -0.000032
0 41 U A -0.005316
0 41 U C -0.000010
0 41 U U 0.000018
0 41 U G -0.001676
0 41 U - 0.000001
0 41 G A 0.000158
0 41 G C 0.000034
0 41 G U 0.000033
0 41 G G 0.001079
0 41 G - 0.000019
0 41 - A 0.001623
0 41 - C 0.000038
0 41 - U 0.000003
0 41 - G 0.002151
0 41 - - -0.000044
0 42 A A -0.000058
0 42 A C 0.000033
0 42 A U -0.000011
0 42 A G -0.003522
0 42 A - -0.000024
0 42 C A -0.000051
0 42 C C 0.000010
0 42 C U 0.000890
0 42 C G 0.001726
0 42 C - -0.000024
0 42 U A -0.000027
0 42 U C 0.000015
0 42 U U -0.000046
0 42 U G -0.008397
0 42 U - -0.000040
0 42 G A 0.000012
0 42 G C -0.000044
0 42 G U -0.000024
0 42 G G -0.000146
0 42 G - -0.000024
0 42 - A -0.000038
0 42 - C 0.000039
0 42 - U -0.000035
0 42 - G 0.023468
0 42 - - -0.000039
0 43 A A -0.000033
0 43 A C -0.003707
0 43 A U -0.000034
0 43 A G -0.000006
0 43 A - 0.000037
0 43 C A -0.000046
0 43 C C 0.002809
0 43 C U -0.000029
0 43 C G 0.000005
0 43 C - -0.000012
0 43 U A 0.000036
0 43 U C -0.008348
0 43 U U -0.000012
0 43 U G 0.000009
0 43 U - 0.000044
0 43 G A 0.000030
0 43 G C 0.000755
0 43 G U -0.000027
0 43 G G -0.000037
0 43 G - -0.000008
0 43 - A 0.000015
0 43 - C 0.040795
0 43 - U 0.000030
0 43 - G 0.000032
0 43 - - 0.000041
0 44 A A -0.003221
0 44 A C 0.000041
0 44 A U 0.000033
0 44 A G -0.000022
0 44 A - -0.000020
0 44 C A 0.002287
0 44 C C -0.000040
0 44 C U 0.000001
0 44 C G -0.000020
0 44 C - 0.000007
0 44 U A -0.013015
0 44 U C 0.000022
0 44 U U 0.000045
0 44 U G 0.000038
0 44 U - -0.000043
0 44 G A 0.000908
0 44 G C -0.000010
0 44 G U 0.000013
0 44 G G 0.000009
0 44 G - -0.000004
0 44 - A 0.037393
0 44 - C -0.000027
0 44 - U -0.000022
0 44 - G -0.000008
0 44 - - -0.000038
0 45 A A -0.014171
0 45 A C 0.000032
0 45 A U 0.000019
0 45 A G 0.000003
0 45 A - -0.000031
0 45 C A -0.004333
0 45 C C 0.000041
0 45 C U -0.000031
0 45 C G -0.000036
0 45 C - 0.000009
0 45 U A -0.004176
0 45 U C -0.000030
0 45 U U 0.000010
0 45 U G -0.000011
0 45 U - -0.000039
0 45 G A -0.000073
0 45 G C 0.000035
0 45 G U 0.000020
0 45 G G -0.000033
0 45 G - 0.000044
0 45 - A 0.039006
0 45 - C 0.000012
0 45 - U -0.000016
0 45 - G 0.000804
0 45 - - 0.000003
0 46 A A 0.000021
0 46 A C -0.002891
0 46 A U -0.000034
0 46 A G 0.000031
0 46 A - -0.000029
0 46 C A -0.000048
0 46 C C 0.001450
0 46 C U 0.000033
0 46 C G 0.000023
0 46 C - -0.000049
0 46 U A -0.000044
0 46 U C -0.009212
0 46 U U -0.000024
0 46 U G -0.000045
0 46 U - 0.000043
0 46 G A -0.000000
0 46 G C 0.001812
0 46 G U 0.000017
0 46 G G -0.000018
0 46 G - 0.000021
0 46 - A -0.000037
0 46 - C 0.032112
0 46 - U -0.000003
0 46 - G -0.000021
0 46 - - -0.000004
0 47 A A -0.000035
0 47 A C -0.011831
0 47 A U 0.000017
0 47 A G -0.000008
0 47 A - 0.000041
0 47 C A -0.000044
0 47 C C -0.009024
0 47 C U -0.000029
0 47 C G 0.000996
0 47 C - 0.000033
0 47 U A -0.000042
0 47 U C -0.003005
0 47 U U -0.000021
0 47 U G 0.000014
0 47 U - -0.000010
0 47 G A -0.000014
0 47 G C 0.003289
0 47 G U 0.000002
0 47 G G -0.000002
0 47 G - 0.000030
0 47 - A -0.000019
0 47 - C 0.007665
0 47 - U -0.000003
0 47 - G -0.000024
0 47 - - 0.000036
0 48 A A -0.000006
0 48 A C 0.000014
0 48 A U -0.000043
0 48 A G -0.000046
0 48 A - -0.002108
0 48 C A -0.000053
0 48 C C -0.000054
0 48 C U 0.000856
0 48 C G -0.000057
0 48 C - 0.001023
0 48 U A 0.000499
0 48 U C -0.000038
0 48 U U -0.000040
0 48 U G 0.000027
0 48 U - -0.013753
0 48 G A -0.000021
0 48 G C -0.000053
0 48 G U -0.000034
0 48 G G 0.000013
0 48 G - 0.002624
0 48 - A -0.000010
0 48 - C -0.000046
0 48 - U 0.000033
0 48 - G -0.000006
0 48 - - 0.021015
0 49 A A 0.000048
0 49 A C -0.000020
0 49 A U -0.000019
0 49 A G -0.000008
0 49 A - -0.002526
0 49 C A -0.000046
0 49 C C 0.000451
0 49 C U -0.000026
0 49 C G 0.000035
0 49 C - 0.001449
0 49 U A -0.000045
0 49 U C -0.000037
0 49 U U 0.000030
0 49 U G 0.000009
0 49 U - -0.006424
0 49 G A -0.000045
0 49 G C 0.000030
0 49 G U -0.000013
0 49 G G 0.000009
0 49 G - 0.002268
0 49 - A -0.000021
0 49 - C -0.000036
0 49 - U -0.000001
0 49 - G 0.000012
0 49 - - 0.017721
0 50 A A 0.000006
0 50 A C -0.000034
0 50 A U -0.000041
0 50 A G 0.000047
0 50 A - -0.002499
0 50 C A -0.000017
0 50 C C -0.000037
0 50 C U 0.000031
0 50 C G 0.000000
0 50 C - 0.002406
0 50 U A 0.000041
0 50 U C -0.000046
0 50 U U -0.000024
0 50 U G 0.000014
0 50 U - -0.007429
0 50 G A -0.000006
0 50 G C -0.000008
0 50 G U 0.000047
0 50 G G -0.000031
0 50 G - 0.003337
0 50 - A -0.000007
0 50 - C -0.000019
0 50 - U 0.000027
0 50 - G 0.000038
0 50 - - 0.022016
0 51 A A -0.000029
0 51 A C 0.000002
0 51 A U 0.000008
0 51 A G -0.000060
0 51 A - -0.002251
0 51 C A 0.000043
0 51 C C 0.000001
0 51 C U 0.000038
0 51 C G 0.000012
0 51 C - 0.001879
0 51 U A -0.000019
0 51 U C -0.000034
0 51 U U -0.000020
0 51 U G 0.000527
0 51 U - -0.012902
0 51 G A 0.000027
0 51 G C -0.000042
0 51 G U -0.000033
0 51 G G 0.000001
0 51 G - 0.002063
0 51 - A -0.000017
0 51 - C -0.000040
0 51 - U 0.000019
0 51 - G 0.000022
0 51 - - 0.022704
0 52 A A -0.001919
0 52 A C -0.000035
0 52 A U 0.000615
0 52 A G -0.000053
0 52 A - -0.000037
0 52 C A -0.001353
0 52 C C 0.001632
0 52 C U 0.000160
0 52 C G 0.001007
0 52 C - 0.000911
0 52 U A -0.005646
0 52 U C -0.000050
0 52 U U -0.000064
0 52 U G -0.000012
0 52 U - -0.000054
0 52 G A 0.001931
0 52 G C 0.000025
0 52 G U 0.000020
0 52 G G -0.000015
0 52 G - 0.000045
0 52 - A 0.004639
0 52 - C -0.000042
0 52 - U -0.000027
0 52 - G 0.000046
0 52 - - 0.000040
0 53 A A -0.001817
0 53 A C -0.000056
0 53 A U 0.000020
0 53 A G -0.000001
0 53 A - -0.000006
0 53 C A -0.010970
0 53 C C -0.000088
0 53 C U 0.001018
0 53 C G 0.000410
0 53 C - 0.003478
0 53 U A -0.000378
0 53 U C -0.081214
0 53 U U -0.000030
0 53 U G 0.000032
0 53 U - 0.000264
0 53 G A 0.002373
0 53 G C -0.000052
0 53 G U 0.000025
0 53 G G -0.000047
0 53 G - -0.000009
0 53 - A 0.001735
0 53 - C -0.000009
0 53 - U 0.000017
0 53 - G 0.000262
0 53 - - 0.000844
0 54 A A 0.000045
0 54 A C 0.000784
0 54 A U 0.000028
0 54 A G -0.010647
0 54 A - -0.000005
0 54 C A -0.000037
0 54 C C 0.000376
0 54 C U 0.000909
0 54 C G -0.009726
0 54 C - -0.000007
0 54 U A -0.000025
0 54 U C 0.000011
0 54 U U -0.000083
0 54 U G -0.002630
0 54 U - -0.000015
0 54 G A -0.000036
0 54 G C 0.000006
0 54 G U -0.000050
0 54 G G 0.002217
0 54 G - -0.000019
0 54 - A 0.000687
0 54 - C -0.000004
0 54 - U -0.000019
0 54 - G 0.007608
0 54 - - 0.000046
0 55 A A 0.000033
0 55 A C 0.000720
0 55 A U -0.000031
0 55 A G -0.004121
0 55 A - -0.000008
0 55 C A 0.000009
0 55 C C -0.000021
0 55 C U 0.000005
0 55 C G 0.001586
0 55 C - -0.000021
0 55 U A 0.000021
0 55 U C 0.000042
0 55 U U 0.000047
0 55 U G -0.008098
0 55 U - -0.000005
0 55 G A -0.000045
0 55 G C -0.000032
0 55 G U -0.000029
0 55 G G 0.003032
0 55 G - -0.000048
0 55 - A 0.000023
0 55 - C 0.000037
0 55 - U 0.000002
0 55 - G 0.032793
0 55 - - 0.000037
0 56 A A 0.000018
0 56 A C 0.000038
0 56 A U -0.004099
0 56 A G 0.000028
0 56 A - 0.000013
0 56 C A -0.000018
0 56 C C 0.000039
0 56 C U 0.001620
0 56 C G 0.000243
0 56 C - -0.000023
0 56 U A 0.000031
0 56 U C -0.000050
0 56 U U -0.006711
0 56 U G 0.000013
0 56 U - 0.000013
0 56 G A 0.000020
0 56 G C -0.000016
0 56 G U 0.000728
0 56 G G 0.000014
0 56 G - -0.000022
0 56 - A -0.000024
0 56 - C -0.000032
0 56 - U 0.031540
0 56 - G -0.000031
0 56 - - -0.000025
0 57 A A -0.000044
0 57 A C -0.000033
0 57 A U -0.000010
0 57 A G -0.011094
0 57 A - 0.000005
0 57 C A -0.000050
0 57 C C 0.000044
0 57 C U 0.000002
0 57 C G 0.002761
0 57 C - 0.000046
0 57 U A -0.000002
0 57 U C 0.000028
0 57 U U -0.000025
0 57 U G -0.007253
0 57 U - 0.000040
0 57 G A -0.000030
0 57 G C -0.000049
0 57 G U -0.000015
0 57 G G 0.001902
0 57 G - -0.000021
0 57 - A 0.000035
0 57 - C 0.000035
0 57 - U -0.000050
0 57 - G 0.041236
0 57 - - -0.000051
0 58 A A 0.000045
0 58 A C -0.002639
0 58 A U 0.000025
0 58 A G -0.000033
0 58 A - 0.000036
0 58 C A -0.000048
0 58 C C 0.002015
0 58 C U -0.000029
0 58 C G 0.000039
0 58 C - 0.000289
0 58 U A 0.000017
0 58 U C -0.007381
0 58 U U -0.000045
0 58 U G 0.000031
0 58 U - -0.000028
0 58 G A 0.000021
0 58 G C 0.001842
0 58 G U -0.000006
0 58 G G 0.000018
0 58 G - 0.000040
0 58 - A -0.000016
0 58 - C 0.018242
0 58 - U -0.000004
0 58 - G 0.000027
0 58 - - 0.000047
0 59 A A -0.000037
0 59 A C -0.000221
0 59 A U -0.076859
0 59 A G 0.000037
0 59 A - 0.000018
0 59 C A 0.000034
0 59 C C -0.050610
0 59 C U 0.000711
0 59 C G 0.000955
0 59 C - -0.000037
0 59 U A -0.000002
0 59 U C -0.000405
0 59 U U -0.011355
0 59 U G 0.000038
0 59 U - 0.000480
0 59 G A 0.000006
0 59 G C -0.000074
0 59 G U 0.000954
0 59 G G -0.000035
0 59 G - 0.000003
0 59 - A -0.000021
0 59 - C 0.001708
0 59 - U 0.002959
0 59 - G 0.000014
0 59 - - -0.000034
0 60 A A -0.003700
0 60 A C -0.000053
0 60 A U 0.000005
0 60 A G -0.000031
0 60 A - -0.000038
0 60 C A 0.000057
0 60 C C -0.000013
0 60 C U 0.000001
0 60 C G 0.000342
0 60 C - 0.000966
0 60 U A -0.014935
0 60 U C -0.000040
0 60 U U 0.000192
0 60 U G 0.000042
0 60 U - 0.000041
0 60 G A 0.001422
0 60 G C -0.000038
0 60 G U 0.000040
0 60 G G -0.000022
0 60 G - -0.000022
0 60 - A 0.015762
0 60 - C -0.000042
0 60 - U 0.000827
0 60 - G -0.000025
0 60 - - 0.000050
0 61 A A -0.002291
0 61 A C -0.000043
0 61 A U 0.000031
0 61 A G 0.000016
0 61 A - -0.000003
0 61 C A 0.001309
0 61 C C 0.000887
0 61 C U -0.000047
0 61 C G -0.000055
0 61 C - 0.000048
0 61 U A -0.003633
0 61 U C 0.000004
0 61 U U -0.000035
0 61 U G 0.000046
0 61 U - 0.000009
0 61 G A 0.000214
0 61 G C 0.000032
0 61 G U -0.000027
0 61 G G 0.000002
0 61 G - -0.000028
0 61 - A 0.009069
0 61 - C -0.000036
0 61 - U 0.000048
0 61 - G -0.000042
0 61 - - -0.000030
0 62 A A -0.001992
0 62 A C 0.000624
0 62 A U -0.001356
0 62 A G 0.001032
0 62 A - 0.000010
0 62 C A 0.003513
0 62 C C -0.001257
0 62 C U -0.000752
0 62 C G 0.000064
0 62 C - 0.000864
0 62 U A -0.002735
0 62 U C -0.000029
0 62 U U -0.001530
0 62 U G 0.000034
0 62 U - 0.000004
0 62 G A 0.000001
0 62 G C -0.000000
0 62 G U 0.000150
0 62 G G -0.000029
0 62 G - 0.000003
0 62 - A -0.000046
0 62 - C 0.000008
0 62 - U 0.003617
0 62 - G -0.000027
0 62 - - 0.000013
0 63 A A -0.000043
0 63 A C 0.000148
0 63 A U -0.002715
0 63 A G 0.000021
0 63 A - -0.000041
0 63 C A 0.000030
0 63 C C -0.000549
0 63 C U 0.004543
0 63 C G 0.001081
0 63 C - -0.000007
0 63 U A -0.000048
0 63 U C 0.000025
0 63 U U -0.066587
0 63 U G -0.000057
0 63 U - -0.000039
0 63 G A -0.000004
0 63 G C 0.000006
0 63 G U 0.000048
0 63 G G -0.000047
0 63 G - 0.000024
0 63 - A 0.001027
0 63 - C -0.000027
0 63 - U 0.005498
0 63 - G 0.000021
0 63 - - -0.000001
0 64 A A 0.000004
0 64 A C -0.002397
0 64 A U 0.000501
0 64 A G 0.000003
0 64 A - -0.000005
0 64 C A 0.000003
0 64 C C 0.002997
0 64 C U -0.000452
0 64 C G -0.000001
0 64 C - 0.000696
0 64 U A 0.000019
0 64 U C -0.006460
0 64 U U -0.000001
0 64 U G 0.000019
0 64 U - 0.000043
0 64 G A 0.000038
0 64 G C -0.000483
0 64 G U 0.000017
0 64 G G -0.000001
0 64 G - 0.000104
0 64 - A 0.000043
0 64 - C 0.003721
0 64 - U -0.000041
0 64 - G -0.000034
0 64 - - -0.000043
0 65 A A -0.000019
0 65 A C -0.007493
0 65 A U -0.000036
0 65 A G -0.000034
0 65 A - -0.000002
0 65 C A 0.000004
0 65 C C 0.005582
0 65 C U -0.000028
0 65 C G -0.000026
0 65 C - -0.000034
0 65 U A -0.000049
0 65 U C -0.009034
0 65 U U 0.000003
0 65 U G 0.000018
0 65 U - 0.000588
0 65 G A -0.000006
0 65 G C 0.000852
0 65 G U 0.000032
0 65 G G -0.000017
0 65 G - 0.000012
0 65 - A 0.000033
0 65 - C 0.002104
0 65 - U 0.000637
0 65 - G -0.000011