# NB_STEPS 3000
# UP_FREQ 1000
# TEMP 1.000000
# LAMBDA 0.050000
# ID_THRES 1.000000
# ALPHA 1.653741
0 0 A A -0.001188
0 0 C C -0.000028
0 0 U U -0.000088
0 0 G G 0.001559
0 0 - - 0.000017
0 1 A A 0.000762
0 1 A C 0.001029
0 1 A U -0.000050
0 1 A G -0.144655
0 1 A - 0.001709
0 1 C A -0.000023
0 1 C C 0.000006
0 1 C U 0.000009
0 1 C G 0.000031
0 1 C - -0.000042
0 1 U A 0.000028
0 1 U C -0.000018
0 1 U U 0.000001
0 1 U G 0.000433
0 1 U - 0.000040
0 1 G A -0.000005
0 1 G C 0.000050
0 1 G U 0.001224
0 1 G G -0.000058
0 1 G - -0.000024
0 1 - A 0.000013
0 1 - C -0.000038
0 1 - U 0.000016
0 1 - G 0.000841
0 1 - - -0.000045
0 2 A A 0.000275
0 2 A C 0.003420
0 2 A U -0.000085
0 2 A G -0.012175
0 2 A - 0.000002
0 2 C A -0.000026
0 2 C C -0.000049
0 2 C U 0.000048
0 2 C G 0.000030
0 2 C - 0.000038
0 2 U A -0.000035
0 2 U C 0.000379
0 2 U U -0.000027
0 2 U G -0.000061
0 2 U - 0.000041
0 2 G A -0.000025
0 2 G C 0.000680
0 2 G U -0.000026
0 2 G G 0.000262
0 2 G - -0.000035
0 2 - A -0.000004
0 2 - C -0.000007
0 2 - U 0.000041
0 2 - G 0.000168
0 2 - - -0.000034
0 3 A A 0.000839
0 3 A C -0.001210
0 3 A U -0.004524
0 3 A G 0.001912
0 3 A - -0.000008
0 3 C A 0.000020
0 3 C C -0.000045
0 3 C U 0.000018
0 3 C G 0.000000
0 3 C - 0.000038
0 3 U A 0.000016
0 3 U C -0.000037
0 3 U U -0.000092
0 3 U G -0.000029
0 3 U - 0.000038
0 3 G A -0.000021
0 3 G C 0.000004
0 3 G U 0.001002
0 3 G G 0.000930
0 3 G - -0.000044
0 3 - A 0.000002
0 3 - C 0.000213
0 3 - U -0.000026
0 3 - G -0.000013
0 3 - - -0.000009
0 4 A A -0.002276
0 4 A C -0.001381
0 4 A U 0.000000
0 4 A G 0.001533
0 4 A - 0.000000
0 4 C A -0.000047
0 4 C C 0.000019
0 4 C U -0.000050
0 4 C G 0.000049
0 4 C - 0.000043
0 4 U A 0.000021
0 4 U C -0.000043
0 4 U U 0.000382
0 4 U G -0.000036
0 4 U - 0.000036
0 4 G A 0.000040
0 4 G C -0.000021
0 4 G U 0.000000
0 4 G G 0.000507
0 4 G - -0.000050
0 4 - A -0.000038
0 4 - C -0.000009
0 4 - U 0.000011
0 4 - G -0.000043
0 4 - - 0.000126
0 5 A A 0.001081
0 5 A C 0.002277
0 5 A U -0.000075
0 5 A G -0.004992
0 5 A - 0.000023
0 5 C A 0.000020
0 5 C C -0.000038
0 5 C U 0.000037
0 5 C G 0.000010
0 5 C - -0.000036
0 5 U A -0.000050
0 5 U C 0.000010
0 5 U U -0.000009
0 5 U G 0.000353
0 5 U - -0.000038
0 5 G A -0.000038
0 5 G C 0.000660
0 5 G U 0.000091
0 5 G G -0.000062
0 5 G - 0.000041
0 5 - A 0.000027
0 5 - C 0.000015
0 5 - U -0.000010
0 5 - G 0.000171
0 5 - - -0.000023
0 6 A A -0.000205
0 6 A C -0.004700
0 6 A U -0.000068
0 6 A G -0.000054
0 6 A - -0.000038
0 6 C A -0.000011
0 6 C C 0.000044
0 6 C U 0.000039
0 6 C G 0.000004
0 6 C - -0.000002
0 6 U A -0.000030
0 6 U C -0.000109
0 6 U U 0.000048
0 6 U G 0.000016
0 6 U - -0.000032
0 6 G A 0.000564
0 6 G C 0.000011
0 6 G U 0.000039
0 6 G G -0.000049
0 6 G - -0.000032
0 6 - A -0.000034
0 6 - C 0.000570
0 6 - U -0.000002
0 6 - G -0.000003
0 6 - - 0.000030
0 7 A A -0.000109
0 7 A C -0.134442
0 7 A U 0.003865
0 7 A G 0.000820
0 7 A - 0.001525
0 7 C A 0.000047
0 7 C C -0.000034
0 7 C U 0.000047
0 7 C G 0.000035
0 7 C - 0.000010
0 7 U A -0.000039
0 7 U C 0.000429
0 7 U U -0.000057
0 7 U G -0.000021
0 7 U - -0.000020
0 7 G A 0.000001
0 7 G C 0.003118
0 7 G U -0.000070
0 7 G G 0.000244
0 7 G - -0.000020
0 7 - A 0.000018
0 7 - C -0.000058
0 7 - U -0.000024
0 7 - G -0.000017
0 7 - - 0.000036
0 8 A A -0.182200
0 8 A C 0.000035
0 8 A U -0.000029
0 8 A G -0.000390
0 8 A - 0.000883
0 8 C A -0.000037
0 8 C C -0.000033
0 8 C U 0.000036
0 8 C G 0.000032
0 8 C - 0.000003
0 8 U A -0.000010
0 8 U C 0.000039
0 8 U U -0.000013
0 8 U G 0.000003
0 8 U - 0.000031
0 8 G A 0.001402
0 8 G C -0.000019
0 8 G U -0.000011
0 8 G G -0.000035
0 8 G - -0.000033
0 8 - A 0.000466
0 8 - C 0.000048
0 8 - U 0.000034
0 8 - G 0.000049
0 8 - - 0.000265
0 9 A A 0.000287
0 9 A C 0.000057
0 9 A U 0.000055
0 9 A G -0.258465
0 9 A - 0.000026
0 9 C A 0.000059
0 9 C C 0.000056
0 9 C U -0.000024
0 9 C G -0.000033
0 9 C - 0.000056
0 9 U A 0.000014
0 9 U C 0.000016
0 9 U U 0.000649
0 9 U G -0.000014
0 9 U - 0.000034
0 9 G A -0.000013
0 9 G C -0.000023
0 9 G U -0.000024
0 9 G G 0.001914
0 9 G - 0.000037
0 9 - A -0.000004
0 9 - C 0.000376
0 9 - U 0.000055
0 9 - G 0.006401
0 9 - - 0.000058
0 10 A A 0.000806
0 10 A C 0.000890
0 10 A U -0.120493
0 10 A G 0.000518
0 10 A - 0.000016
0 10 C A 0.000041
0 10 C C 0.000051
0 10 C U 0.000022
0 10 C G 0.000016
0 10 C - 0.000053
0 10 U A 0.000016
0 10 U C -0.000030
0 10 U U -0.000097
0 10 U G -0.000013
0 10 U - -0.000016
0 10 G A -0.000025
0 10 G C -0.000015
0 10 G U 0.000676
0 10 G G 0.000662
0 10 G - -0.000026
0 10 - A 0.000033
0 10 - C -0.000015
0 10 - U 0.002140
0 10 - G 0.000047
0 10 - - 0.000016
0 11 A A 0.000014
0 11 A C 0.000034
0 11 A U -0.002630
0 11 A G 0.000822
0 11 A - -0.037209
0 11 C A 0.000027
0 11 C C -0.000036
0 11 C U -0.000016
0 11 C G -0.000038
0 11 C - 0.000016
0 11 U A 0.000020
0 11 U C 0.000039
0 11 U U 0.000045
0 11 U G 0.000039
0 11 U - -0.000026
0 11 G A -0.000016
0 11 G C 0.000020
0 11 G U 0.000454
0 11 G G -0.000029
0 11 G - 0.001112
0 11 - A 0.000008
0 11 - C -0.000013
0 11 - U 0.000011
0 11 - G -0.000003
0 11 - - 0.000545
0 12 A A -0.023219
0 12 A C 0.008839
0 12 A U -0.005966
0 12 A G 0.001238
0 12 A - 0.000052
0 12 C A -0.000022
0 12 C C -0.000039
0 12 C U -0.000012
0 12 C G -0.000006
0 12 C - 0.000025
0 12 U A -0.000015
0 12 U C -0.000017
0 12 U U 0.000605
0 12 U G -0.000039
0 12 U - -0.000408
0 12 G A 0.000175
0 12 G C 0.000595
0 12 G U -0.000021
0 12 G G 0.000024
0 12 G - -0.000020
0 12 - A 0.000002
0 12 - C 0.000022
0 12 - U 0.000176
0 12 - G 0.000017
0 12 - - 0.000000
0 13 A A 0.000007
0 13 A C -0.000132
0 13 A U -0.000238
0 13 A G -0.007166
0 13 A - 0.000422
0 13 C A -0.000026
0 13 C C 0.000043
0 13 C U -0.000023
0 13 C G 0.000017
0 13 C - -0.000009
0 13 U A 0.000023
0 13 U C 0.000006
0 13 U U 0.000004
0 13 U G -0.000065
0 13 U - -0.000007
0 13 G A 0.000001
0 13 G C -0.000045
0 13 G U 0.000587
0 13 G G 0.000026
0 13 G - 0.000019
0 13 - A 0.000003
0 13 - C -0.000044
0 13 - U -0.000056
0 13 - G 0.000488
0 13 - - -0.000026
0 14 A A -0.000024
0 14 A C -0.007213
0 14 A U 0.002160
0 14 A G 0.001610
0 14 A - -0.000024
0 14 C A -0.000016
0 14 C C -0.000001
0 14 C U 0.000042
0 14 C G 0.000030
0 14 C - 0.000040
0 14 U A -0.000011
0 14 U C 0.000148
0 14 U U -0.000023
0 14 U G -0.000009
0 14 U - 0.000023
0 14 G A 0.000084
0 14 G C -0.000005
0 14 G U 0.000004
0 14 G G 0.000579
0 14 G - 0.000038
0 14 - A 0.000040
0 14 - C 0.000199
0 14 - U -0.000068
0 14 - G 0.000035
0 14 - - 0.000040
0 15 A A 0.000008
0 15 A C 0.001234
0 15 A U -0.001539
0 15 A G -0.001327
0 15 A - -0.000015
0 15 C A 0.000030
0 15 C C -0.000050
0 15 C U 0.000037
0 15 C G 0.000027
0 15 C - 0.000049
0 15 U A 0.000050
0 15 U C -0.000016
0 15 U U 0.000001
0 15 U G -0.000094
0 15 U - 0.000030
0 15 G A 0.000050
0 15 G C 0.001087
0 15 G U -0.000034
0 15 G G 0.000043
0 15 G - 0.000050
0 15 - A -0.000050
0 15 - C 0.000004
0 15 - U 0.000217
0 15 - G 0.000017
0 15 - - 0.000030
0 16 A A -0.007673
0 16 A C 0.000744
0 16 A U 0.000272
0 16 A G 0.000152
0 16 A - 0.000048
0 16 C A 0.000010
0 16 C C -0.000041
0 16 C U 0.000009
0 16 C G -0.000033
0 16 C - -0.000028
0 16 U A -0.000081
0 16 U C 0.000004
0 16 U U 0.000002
0 16 U G 0.000041
0 16 U - 0.000030
0 16 G A 0.001033
0 16 G C 0.000960
0 16 G U -0.000063
0 16 G G 0.000009
0 16 G - -0.000028
0 16 - A 0.000013
0 16 - C 0.000023
0 16 - U -0.000008
0 16 - G 0.000119
0 16 - - 0.000016
0 17 A A -0.006191
0 17 A C -0.012371
0 17 A U -0.000023
0 17 A G 0.005442
0 17 A - 0.000765
0 17 C A -0.000036
0 17 C C -0.000003
0 17 C U 0.000025
0 17 C G 0.000014
0 17 C - -0.000004
0 17 U A 0.000041
0 17 U C -0.000008
0 17 U U -0.000017
0 17 U G 0.000371
0 17 U - -0.000025
0 17 G A 0.000031
0 17 G C 0.000222
0 17 G U 0.000014
0 17 G G 0.000600
0 17 G - -0.000022
0 17 - A 0.000014
0 17 - C 0.000123
0 17 - U -0.000036
0 17 - G 0.000031
0 17 - - -0.000009
0 18 A A -0.002141
0 18 A C 0.000133
0 18 A U 0.001025
0 18 A G -0.001008
0 18 A - 0.002051
0 18 C A -0.000036
0 18 C C -0.000042
0 18 C U 0.000031
0 18 C G 0.000049
0 18 C - -0.000049
0 18 U A -0.000042
0 18 U C -0.000004
0 18 U U 0.000027
0 18 U G 0.000340
0 18 U - 0.000022
0 18 G A 0.000590
0 18 G C -0.000008
0 18 G U 0.000027
0 18 G G -0.000069
0 18 G - 0.000015
0 18 - A 0.000047
0 18 - C -0.000022
0 18 - U -0.000038
0 18 - G 0.000147
0 18 - - 0.000025
0 19 A A -0.000297
0 19 A C -0.001821
0 19 A U 0.001720
0 19 A G 0.000484
0 19 A - 0.000043
0 19 C A 0.000049
0 19 C C -0.000040
0 19 C U 0.000016
0 19 C G 0.000022
0 19 C - -0.000050
0 19 U A -0.000045
0 19 U C 0.000159
0 19 U U 0.000040
0 19 U G -0.000062
0 19 U - -0.000008
0 19 G A 0.000012
0 19 G C 0.000991
0 19 G U 0.000024
0 19 G G 0.000091
0 19 G - 0.000010
0 19 - A 0.000008
0 19 - C -0.000046
0 19 - U 0.000011
0 19 - G 0.000129
0 19 - - -0.000031
0 20 A A -0.000050
0 20 A C 0.000102
0 20 A U -0.000428
0 20 A G 0.000031
0 20 A - 0.000014
0 20 C A 0.000010
0 20 C C -0.000033
0 20 C U -0.000031
0 20 C G -0.000020
0 20 C - 0.000010
0 20 U A 0.000023
0 20 U C -0.000081
0 20 U U -0.000035
0 20 U G -0.000010
0 20 U - 0.000042
0 20 G A 0.000038
0 20 G C 0.001011
0 20 G U -0.000016
0 20 G G -0.000031
0 20 G - 0.000010
0 20 - A 0.000010
0 20 - C -0.000032
0 20 - U 0.000044
0 20 - G 0.000010
0 20 - - 0.000050
0 21 A A 0.000719
0 21 A C 0.000359
0 21 A U -0.005140
0 21 A G -0.000242
0 21 A - -0.000017
0 21 C A -0.000010
0 21 C C -0.000042
0 21 C U 0.000010
0 21 C G -0.000019
0 21 C - -0.000042
0 21 U A -0.000032
0 21 U C 0.000217
0 21 U U 0.000009
0 21 U G -0.000032
0 21 U - -0.000023
0 21 G A -0.000042
0 21 G C 0.002101
0 21 G U -0.000023
0 21 G G -0.000024
0 21 G - -0.000035
0 21 - A 0.000001
0 21 - C 0.000024
0 21 - U -0.000018
0 21 - G 0.000171
0 21 - - -0.000031
0 22 A A 0.002760
0 22 A C 0.001019
0 22 A U -0.001218
0 22 A G -0.005284
0 22 A - 0.000046
0 22 C A -0.000038
0 22 C C -0.000020
0 22 C U 0.000012
0 22 C G 0.000035
0 22 C - -0.000001
0 22 U A -0.000068
0 22 U C 0.000049
0 22 U U 0.000045
0 22 U G -0.000028
0 22 U - 0.000611
0 22 G A 0.000194
0 22 G C -0.000031
0 22 G U 0.000942
0 22 G G 0.000003
0 22 G - 0.000010
0 22 - A 0.000172
0 22 - C 0.000034
0 22 - U -0.000020
0 22 - G -0.000009
0 22 - - -0.000001
0 23 A A 0.000024
0 23 A C -0.000546
0 23 A U -0.001373
0 23 A G 0.001609
0 23 A - 0.000041
0 23 C A 0.000048
0 23 C C -0.000001
0 23 C U -0.000031
0 23 C G 0.000021
0 23 C - 0.000048
0 23 U A -0.000015
0 23 U C -0.000038
0 23 U U 0.000191
0 23 U G -0.000001
0 23 U - 0.000048
0 23 G A 0.000049
0 23 G C 0.000479
0 23 G U 0.000217
0 23 G G -0.000002
0 23 G - -0.000046
0 23 - A -0.000039
0 23 - C -0.000052
0 23 - U 0.000127
0 23 - G 0.000015
0 23 - - -0.000037
0 24 A A 0.000761
0 24 A C -0.001041
0 24 A U -0.053633
0 24 A G 0.000528
0 24 A - -0.000041
0 24 C A -0.000014
0 24 C C -0.000047
0 24 C U -0.000036
0 24 C G 0.000008
0 24 C - -0.000031
0 24 U A -0.000031
0 24 U C 0.000030
0 24 U U 0.000166
0 24 U G 0.000001
0 24 U - -0.000010
0 24 G A -0.000016
0 24 G C 0.000006
0 24 G U 0.001581
0 24 G G -0.000038
0 24 G - -0.000034
0 24 - A -0.000031
0 24 - C 0.000236
0 24 - U -0.000038
0 24 - G 0.000004
0 24 - - 0.000024
0 25 A A 0.000114
0 25 A C -0.003719
0 25 A U -0.027723
0 25 A G 0.001775
0 25 A - 0.000792
0 25 C A -0.000022
0 25 C C 0.000020
0 25 C U 0.000021
0 25 C G 0.000002
0 25 C - 0.000045
0 25 U A 0.000012
0 25 U C 0.000136
0 25 U U 0.000011
0 25 U G 0.000051
0 25 U - 0.000004
0 25 G A 0.000102
0 25 G C 0.000059
0 25 G U 0.000037
0 25 G G -0.000005
0 25 G - 0.000021
0 25 - A -0.000061
0 25 - C 0.000041
0 25 - U 0.000017
0 25 - G 0.000006
0 25 - - -0.000037
0 26 A A 0.001405
0 26 A C -0.012091
0 26 A U 0.003464
0 26 A G -0.001204
0 26 A - 0.000917
0 26 C A -0.000007
0 26 C C -0.000027
0 26 C U 0.000041
0 26 C G 0.000017
0 26 C - -0.000022
0 26 U A -0.000029
0 26 U C 0.000025
0 26 U U -0.000032
0 26 U G -0.000011
0 26 U - 0.000588
0 26 G A 0.000160
0 26 G C -0.000021
0 26 G U -0.000827
0 26 G G 0.000579
0 26 G - 0.000041
0 26 - A 0.000195
0 26 - C 0.000014
0 26 - U 0.000009
0 26 - G -0.000027
0 26 - - -0.000018
0 27 A A 0.000414
0 27 A C -0.004243
0 27 A U 0.000681
0 27 A G -0.001370
0 27 A - 0.000770
0 27 C A 0.000003
0 27 C C -0.000035
0 27 C U 0.000016
0 27 C G 0.000006
0 27 C - -0.000014
0 27 U A 0.000042
0 27 U C 0.000210
0 27 U U -0.000039
0 27 U G 0.000022
0 27 U - 0.000016
0 27 G A 0.000001
0 27 G C 0.000175
0 27 G U -0.000045
0 27 G G 0.000477
0 27 G - 0.000001
0 27 - A 0.000015
0 27 - C 0.000024
0 27 - U 0.000033
0 27 - G 0.000145
0 27 - - -0.000028
0 28 A A -0.034406
0 28 A C 0.000000
0 28 A U -0.000001
0 28 A G -0.000006
0 28 A - 0.000037
0 28 C A 0.000022
0 28 C C 0.000017
0 28 C U 0.000035
0 28 C G 0.000017
0 28 C - 0.000033
0 28 U A -0.000106
0 28 U C -0.000048
0 28 U U 0.000018
0 28 U G 0.000016
0 28 U - 0.000034
0 28 G A 0.001592
0 28 G C -0.000028
0 28 G U 0.000001
0 28 G G 0.000032
0 28 G - 0.000032
0 28 - A -0.000005
0 28 - C 0.000033
0 28 - U 0.000019
0 28 - G 0.000001
0 28 - - -0.000017
0 29 A A -0.001371
0 29 A C -0.029179
0 29 A U -0.000014
0 29 A G 0.000003
0 29 A - 0.000234
0 29 C A 0.000049
0 29 C C 0.000028
0 29 C U 0.000048
0 29 C G -0.000047
0 29 C - 0.000050
0 29 U A 0.000009
0 29 U C -0.000092
0 29 U U -0.000032
0 29 U G 0.000049
0 29 U - -0.000032
0 29 G A 0.000003
0 29 G C 0.001591
0 29 G U 0.000040
0 29 G G -0.000029
0 29 G - 0.000005
0 29 - A 0.000023
0 29 - C -0.000008
0 29 - U -0.000036
0 29 - G -0.000047
0 29 - - 0.000003
0 30 A A -0.059354
0 30 A C -0.000012
0 30 A U 0.000023
0 30 A G -0.000025
0 30 A - -0.000015
0 30 C A -0.000009
0 30 C C -0.000031
0 30 C U 0.000035
0 30 C G 0.000035
0 30 C - 0.000035
0 30 U A -0.000064
0 30 U C -0.000047
0 30 U U 0.000052
0 30 U G -0.000034
0 30 U - 0.000035
0 30 G A 0.001640
0 30 G C -0.000031
0 30 G U -0.000014
0 30 G G -0.000026
0 30 G - 0.000035
0 30 - A -0.000062
0 30 - C 0.000002
0 30 - U 0.000035
0 30 - G 0.000052
0 30 - - -0.000044
0 31 A A 0.000053
0 31 A C -0.215817
0 31 A U 0.000007
0 31 A G -0.000031
0 31 A - 0.000033
0 31 C A 0.000046
0 31 C C 0.000025
0 31 C U 0.000005
0 31 C G -0.000032
0 31 C - 0.000023
0 31 U A 0.000006
0 31 U C 0.000290
0 31 U U -0.000033
0 31 U G 0.000041
0 31 U - -0.000010
0 31 G A -0.000029
0 31 G C 0.001815
0 31 G U -0.000033
0 31 G G -0.000010
0 31 G - 0.000055
0 31 - A -0.000039
0 31 - C 0.000021
0 31 - U -0.000010
0 31 - G -0.000009
0 31 - - 0.000005
0 32 A A -0.062833
0 32 A C 0.000534
0 32 A U 0.000015
0 32 A G -0.000367
0 32 A - -0.000009
0 32 C A -0.000020
0 32 C C 0.000011
0 32 C U -0.000021
0 32 C G 0.000006
0 32 C - -0.000018
0 32 U A 0.000191
0 32 U C 0.000016
0 32 U U -0.000036
0 32 U G -0.000038
0 32 U - -0.000011
0 32 G A 0.001538
0 32 G C 0.000027
0 32 G U -0.000018
0 32 G G -0.000067
0 32 G - 0.000015
0 32 - A -0.000005
0 32 - C -0.000018
0 32 - U -0.000011
0 32 - G 0.000181
0 32 - - -0.000003
0 33 A A -0.006298
0 33 A C 0.001602
0 33 A U -0.000028
0 33 A G -0.000038
0 33 A - 0.000003
0 33 C A 0.000043
0 33 C C -0.000006
0 33 C U -0.000046
0 33 C G 0.000014
0 33 C - -0.000020
0 33 U A 0.000152
0 33 U C 0.000006
0 33 U U -0.000055
0 33 U G -0.000021
0 33 U - -0.000038
0 33 G A 0.000232
0 33 G C -0.000030
0 33 G U 0.000026
0 33 G G 0.000432
0 33 G - -0.000000
0 33 - A 0.000153
0 33 - C 0.000039
0 33 - U -0.000009
0 33 - G -0.000040
0 33 - - -0.000038
0 34 A A -0.002550
0 34 A C -0.010985
0 34 A U 0.002749
0 34 A G 0.005281
0 34 A - 0.000861
0 34 C A 0.000024
0 34 C C -0.000049
0 34 C U -0.000048
0 34 C G 0.000001
0 34 C - -0.000011
0 34 U A -0.000049
0 34 U C 0.000367
0 34 U U -0.000042
0 34 U G -0.000003
0 34 U - 0.000014
0 34 G A 0.000966
0 34 G C -0.000064
0 34 G U 0.000240
0 34 G G -0.000025
0 34 G - 0.000020
0 34 - A 0.000011
0 34 - C 0.000012
0 34 - U 0.000168
0 34 - G -0.000003
0 34 - - -0.000015
0 35 A A -0.005213
0 35 A C -0.000260
0 35 A U 0.000725
0 35 A G 0.000314
0 35 A - -0.000009
0 35 C A 0.000021
0 35 C C -0.000031
0 35 C U 0.000014
0 35 C G 0.000026
0 35 C - -0.000002
0 35 U A -0.000049
0 35 U C -0.000050
0 35 U U 0.000039
0 35 U G 0.000158
0 35 U - 0.000007
0 35 G A -0.000002
0 35 G C -0.000043
0 35 G U 0.000034
0 35 G G 0.002104
0 35 G - 0.000049
0 35 - A -0.000022
0 35 - C 0.000205
0 35 - U -0.000033
0 35 - G -0.000004
0 35 - - -0.000002
0 36 A A -0.000411
0 36 A C 0.000018
0 36 A U -0.000050
0 36 A G -0.000413
0 36 A - 0.000016
0 36 C A 0.000021
0 36 C C 0.000040
0 36 C U -0.000040
0 36 C G 0.000032
0 36 C - -0.000040
0 36 U A 0.000013
0 36 U C 0.000009
0 36 U U 0.000001
0 36 U G -0.000104
0 36 U - -0.000024
0 36 G A 0.000026
0 36 G C -0.000002
0 36 G U -0.000024
0 36 G G 0.001092
0 36 G - -0.000003
0 36 - A 0.000050
0 36 - C -0.000040
0 36 - U -0.000021
0 36 - G 0.000006
0 36 - - -0.000040
0 37 A A -0.000291
0 37 A C 0.001971
0 37 A U -0.041002
0 37 A G -0.001306
0 37 A - -0.000001
0 37 C A 0.000007
0 37 C C -0.000019
0 37 C U 0.000023
0 37 C G -0.000044
0 37 C - -0.000044
0 37 U A -0.000032
0 37 U C 0.000049
0 37 U U -0.000043
0 37 U G 0.000162
0 37 U - -0.000019
0 37 G A 0.000005
0 37 G C -0.000010
0 37 G U 0.000839
0 37 G G 0.000070
0 37 G - -0.000008
0 37 - A 0.000017
0 37 - C -0.000004
0 37 - U -0.000022
0 37 - G 0.000031
0 37 - - -0.000044
0 38 A A 0.002030
0 38 A C 0.000485
0 38 A U -0.021127
0 38 A G 0.000685
0 38 A - 0.000011
0 38 C A 0.000022
0 38 C C 0.000002
0 38 C U -0.000041
0 38 C G -0.000034
0 38 C - -0.000029
0 38 U A 0.000003
0 38 U C -0.000004
0 38 U U 0.000194
0 38 U G -0.000003
0 38 U - 0.000027
0 38 G A 0.000012
0 38 G C 0.000481
0 38 G U 0.001112
0 38 G G 0.000011
0 38 G - -0.000023
0 38 - A 0.000030
0 38 - C -0.000025
0 38 - U 0.000214
0 38 - G 0.000011
0 38 - - 0.000018
0 39 A A -0.035024
0 39 A C 0.000888
0 39 A U 0.001891
0 39 A G -0.000069
0 39 A - 0.001523
0 39 C A 0.000047
0 39 C C -0.000018
0 39 C U 0.000039
0 39 C G 0.000019
0 39 C - 0.000005
0 39 U A 0.000364
0 39 U C -0.000018
0 39 U U 0.000027
0 39 U G 0.000022
0 39 U - -0.000001
0 39 G A 0.000255
0 39 G C -0.000013
0 39 G U 0.000026
0 39 G G 0.000052
0 39 G - -0.000013
0 39 - A 0.000030
0 39 - C 0.000033
0 39 - U -0.000026
0 39 - G 0.000044
0 39 - - 0.000205
0 40 A A -0.110553
0 40 A C 0.000620
0 40 A U -0.000782
0 40 A G -0.000062
0 40 A - 0.004592
0 40 C A 0.000004
0 40 C C 0.000048
0 40 C U -0.000046
0 40 C G 0.000048
0 40 C - 0.000025
0 40 U A 0.000378
0 40 U C -0.000019
0 40 U U -0.000036
0 40 U G -0.000012
0 40 U - -0.000009
0 40 G A 0.001719
0 40 G C 0.000051
0 40 G U 0.000012
0 40 G G -0.000061
0 40 G - 0.000050
0 40 - A -0.000044
0 40 - C 0.000199
0 40 - U 0.000011
0 40 - G 0.000048
0 40 - - 0.000047
0 41 A A -0.000410
0 41 A C 0.001634
0 41 A U -0.011822
0 41 A G -0.001725
0 41 A - 0.016967
0 41 C A 0.000014
0 41 C C 0.000011
0 41 C U -0.000020
0 41 C G -0.000012
0 41 C - 0.000020
0 41 U A 0.000008
0 41 U C 0.000012
0 41 U U 0.000356
0 41 U G 0.000002
0 41 U - -0.000038
0 41 G A -0.000014
0 41 G C 0.000062
0 41 G U 0.000603
0 41 G G -0.000107
0 41 G - -0.000042
0 41 - A 0.000036
0 41 - C 0.000045
0 41 - U 0.000013
0 41 - G 0.000115
0 41 - - 0.000036
0 42 A A 0.001211
0 42 A C -0.015150
0 42 A U 0.000335
0 42 A G 0.001535
0 42 A - 0.000504
0 42 C A 0.000025
0 42 C C -0.000034
0 42 C U 0.000026
0 42 C G -0.000011
0 42 C - -0.000039
0 42 U A 0.000039
0 42 U C -0.000002
0 42 U U -0.000017
0 42 U G 0.000392
0 42 U - -0.000030
0 42 G A 0.000036
0 42 G C 0.000578
0 42 G U -0.000009
0 42 G G -0.000139
0 42 G - -0.000042
0 42 - A 0.000171
0 42 - C 0.000005
0 42 - U 0.000013
0 42 - G -0.000043
0 42 - - 0.000043
0 43 A A 0.000019
0 43 A C 0.001590
0 43 A U 0.000045
0 43 A G -0.052037
0 43 A - -0.000032
0 43 C A -0.000018
0 43 C C -0.000001
0 43 C U 0.000015
0 43 C G -0.000038
0 43 C - -0.000001
0 43 U A -0.000002
0 43 U C -0.000002
0 43 U U -0.000018
0 43 U G -0.000040
0 43 U - 0.000000
0 43 G A 0.000031
0 43 G C -0.000046
0 43 G U -0.000018
0 43 G G 0.002153
0 43 G - -0.000018
0 43 - A 0.000016
0 43 - C 0.000002
0 43 - U 0.000033
0 43 - G 0.000019
0 43 - - -0.000018
0 44 A A 0.000001
0 44 A C 0.000679
0 44 A U 0.000005
0 44 A G -0.016803
0 44 A - 0.000037
0 44 C A -0.000021
0 44 C C -0.000021
0 44 C U -0.000021
0 44 C G 0.000018
0 44 C - -0.000021
0 44 U A 0.000012
0 44 U C -0.000021
0 44 U U -0.000021
0 44 U G -0.000110
0 44 U - 0.000005
0 44 G A -0.000021
0 44 G C -0.000006
0 44 G U -0.000021
0 44 G G 0.001512
0 44 G - -0.000021
0 44 - A 0.000014
0 44 - C -0.000021
0 44 - U -0.000021
0 44 - G -0.000017
0 44 - - -0.000021
0 45 A A -0.000037
0 45 A C 0.000572
0 45 A U 0.000041
0 45 A G -0.043516
0 45 A - 0.000309
0 45 C A 0.000032
0 45 C C -0.000031
0 45 C U 0.000049
0 45 C G -0.000014
0 45 C - 0.000050
0 45 U A 0.000032
0 45 U C -0.000037
0 45 U U 0.000032
0 45 U G -0.000111
0 45 U - 0.000032
0 45 G A -0.000036
0 45 G C -0.000036
0 45 G U 0.000049
0 45 G G 0.001622
0 45 G - 0.000047
0 45 - A 0.000050
0 45 - C 0.000032
0 45 - U 0.000032
0 45 - G -0.000025
0 45 - - 0.000032
0 46 A A -0.000006
0 46 A C -0.000001
0 46 A U -0.028630
0 46 A G 0.001391
0 46 A - 0.000048
0 46 C A -0.000014
0 46 C C -0.000030
0 46 C U -0.000013
0 46 C G -0.000013
0 46 C - 0.000011
0 46 U A -0.000045
0 46 U C 0.000016
0 46 U U -0.000024
0 46 U G -0.000031
0 46 U - 0.000009
0 46 G A -0.000013
0 46 G C 0.000014
0 46 G U 0.001552
0 46 G G 0.000030
0 46 G - 0.000043
0 46 - A 0.000034
0 46 - C -0.000030
0 46 - U 0.000026
0 46 - G 0.000017
0 46 - - -0.000030
0 47 A A 0.000015
0 47 A C -0.000012
0 47 A U -0.000511
0 47 A G -0.043033
0 47 A - 0.000035
0 47 C A 0.000041
0 47 C C -0.000045
0 47 C U 0.000037
0 47 C G -0.000003
0 47 C - 0.000023
0 47 U A -0.000018
0 47 U C 0.000023
0 47 U U -0.000015
0 47 U G -0.000085
0 47 U - 0.000007
0 47 G A 0.000038
0 47 G C 0.000649
0 47 G U -0.000009
0 47 G G 0.000268
0 47 G - 0.000036
0 47 - A 0.000040
0 47 - C -0.000037
0 47 - U -0.000014
0 47 - G -0.000040
0 47 - - 0.000009
0 48 A A -0.000041
0 48 A C -0.078947
0 48 A U 0.000002
0 48 A G -0.000015
0 48 A - -0.000018
0 48 C A 0.000034
0 48 C C -0.000010
0 48 C U 0.000034
0 48 C G -0.000027
0 48 C - 0.000034
0 48 U A 0.000053
0 48 U C -0.000035
0 48 U U 0.000053
0 48 U G -0.000032
0 48 U - 0.000034
0 48 G A -0.000033
0 48 G C 0.001671
0 48 G U -0.000044
0 48 G G -0.000026
0 48 G - -0.000025
0 48 - A -0.000044
0 48 - C -0.000049
0 48 - U -0.000044
0 48 - G -0.000024
0 48 - - 0.000034
0 49 A A -0.038950
0 49 A C 0.000002
0 49 A U 0.000003
0 49 A G -0.003385
0 49 A - 0.000985
0 49 C A 0.000051
0 49 C C 0.000044
0 49 C U -0.000022
0 49 C G -0.000032
0 49 C - -0.000033
0 49 U A -0.000084
0 49 U C -0.000022
0 49 U U 0.000036
0 49 U G 0.000409
0 49 U - 0.000013
0 49 G A -0.000129
0 49 G C 0.000670
0 49 G U 0.000046
0 49 G G 0.000981
0 49 G - 0.000021
0 49 - A 0.001370
0 49 - C -0.000005
0 49 - U -0.000021
0 49 - G -0.000038
0 49 - - -0.000006
0 50 A A -0.026818
0 50 A C 0.000023
0 50 A U -0.000044
0 50 A G -0.000043
0 50 A - 0.000034
0 50 C A 0.000047
0 50 C C 0.000032
0 50 C U 0.000032
0 50 C G 0.000050
0 50 C - 0.000004
0 50 U A -0.000037
0 50 U C 0.000032
0 50 U U 0.000050
0 50 U G -0.000020
0 50 U - 0.000032
0 50 G A 0.001584
0 50 G C -0.000049
0 50 G U 0.000032
0 50 G G 0.000006
0 50 G - -0.000036
0 50 - A -0.000002
0 50 - C -0.000034
0 50 - U 0.000032
0 50 - G -0.000019
0 50 - - -0.000049
0 51 A A -0.003501
0 51 A C -0.062896
0 51 A U 0.000369
0 51 A G 0.001004
0 51 A - 0.003493
0 51 C A 0.000046
0 51 C C 0.000002
0 51 C U 0.000019
0 51 C G -0.000044
0 51 C - 0.000014
0 51 U A -0.000035
0 51 U C -0.000066
0 51 U U -0.000028
0 51 U G 0.000037
0 51 U - -0.000030
0 51 G A 0.000024
0 51 G C 0.003433
0 51 G U -0.000078
0 51 G G 0.000008
0 51 G - 0.000000
0 51 - A 0.000010
0 51 - C -0.000020
0 51 - U 0.000003
0 51 - G 0.000048
0 51 - - 0.000051
0 52 A A 0.000654
0 52 A C 0.001738
0 52 A U -0.129268
0 52 A G 0.000524
0 52 A - 0.000480
0 52 C A -0.000000
0 52 C C -0.000032
0 52 C U -0.000038
0 52 C G 0.000015
0 52 C - 0.000003
0 52 U A 0.000022
0 52 U C -0.000046
0 52 U U 0.000267
0 52 U G 0.000026
0 52 U - 0.000037
0 52 G A -0.000018
0 52 G C -0.000011
0 52 G U 0.001705
0 52 G G 0.000020
0 52 G - 0.000016
0 52 - A -0.000041
0 52 - C -0.000059
0 52 - U 0.001806
0 52 - G 0.000036
0 52 - - -0.000035
0 53 A A -0.000031
0 53 A C -0.034447
0 53 A U 0.000047
0 53 A G 0.001867
0 53 A - 0.000033
0 53 C A -0.000001
0 53 C C -0.000007
0 53 C U -0.000006
0 53 C G -0.000006
0 53 C - -0.000033
0 53 U A -0.000018
0 53 U C -0.000116
0 53 U U -0.000033
0 53 U G -0.000006
0 53 U - -0.000013
0 53 G A -0.000033
0 53 G C 0.001539
0 53 G U -0.000014
0 53 G G 0.000006
0 53 G - -0.000013
0 53 - A -0.000033
0 53 - C 0.000017
0 53 - U -0.000033
0 53 - G -0.000033
0 53 - - -0.000033
0 54 A A -0.000021
0 54 A C -0.026657
0 54 A U -0.000010
0 54 A G 0.000045
0 54 A - 0.000017
0 54 C A -0.000035
0 54 C C 0.000011
0 54 C U -0.000035
0 54 C G -0.000035
0 54 C - -0.000035
0 54 U A -0.000035
0 54 U C -0.000106
0 54 U U 0.000047
0 54 U G -0.000035
0 54 U - -0.000035
0 54 G A -0.000035
0 54 G C 0.001613
0 54 G U -0.000035
0 54 G G -0.000019
0 54 G - -0.000035
0 54 - A -0.000035
0 54 - C -0.000035
0 54 - U 0.000008
0 54 - G -0.000035
0 54 - - -0.000007
0 55 A A 0.000013
0 55 A C -0.066064
0 55 A U 0.000951
0 55 A G 0.000046
0 55 A - 0.000299
0 55 C A 0.000032
0 55 C C 0.000022
0 55 C U -0.000029
0 55 C G -0.000030
0 55 C - 0.000032
0 55 U A 0.000032
0 55 U C -0.000085
0 55 U U -0.000016
0 55 U G -0.000033
0 55 U - 0.000032
0 55 G A 0.000049
0 55 G C 0.002152
0 55 G U -0.000013
0 55 G G -0.000010
0 55 G - -0.000019
0 55 - A 0.000049
0 55 - C 0.000021
0 55 - U -0.000032
0 55 - G 0.000051
0 55 - - -0.000023
0 56 A A 0.000015
0 56 A C -0.004187
0 56 A U 0.000037
0 56 A G -0.003644
0 56 A - -0.000069
0 56 C A -0.000037
0 56 C C -0.000012
0 56 C U 0.000016
0 56 C G 0.000005
0 56 C - 0.000004
0 56 U A 0.000046
0 56 U C -0.000119
0 56 U U 0.000004
0 56 U G -0.000016
0 56 U - 0.000021
0 56 G A -0.000032
0 56 G C 0.001510
0 56 G U -0.000046
0 56 G G -0.000031
0 56 G - 0.000015
0 56 - A 0.000048
0 56 - C -0.000013
0 56 - U 0.000044
0 56 - G 0.000045
0 56 - - 0.000012
0 57 A A 0.000041
0 57 A C -0.006845
0 57 A U 0.000103
0 57 A G 0.000637
0 57 A - -0.016981
0 57 C A 0.000026
0 57 C C -0.000024
0 57 C U 0.000045
0 57 C G 0.000026
0 57 C - 0.000024
0 57 U A -0.000041
0 57 U C -0.000029
0 57 U U 0.000029
0 57 U G 0.000010
0 57 U - 0.000002
0 57 G A 0.000014
0 57 G C 0.001549
0 57 G U -0.000030
0 57 G G 0.000014
0 57 G - -0.000049
0 57 - A -0.000033
0 57 - C -0.000068
0 57 - U -0.000012
0 57 - G -0.000003
0 57 - - 0.000048
0 58 A A -0.000009
0 58 A C -0.007327
0 58 A U 0.000019
0 58 A G -0.001502
0 58 A - -0.000007
0 58 C A -0.000027
0 58 C C -0.000035
0 58 C U 0.000042
0 58 C G -0.000044
0 58 C - 0.000017
0 58 U A 0.000035
0 58 U C -0.000005
0 58 U U 0.000034
0 58 U G 0.000201
0 58 U - 0.000043
0 58 G A 0.000021
0 58 G C 0.000402
0 58 G U -0.000041
0 58 G G 0.000028
0 58 G - -0.000038
0 58 - A 0.000005
0 58 - C -0.000041
0 58 - U 0.000018
0 58 - G 0.000029
0 58 - - -0.000010
0 59 A A -0.000038
0 59 A C -0.137129
0 59 A U -0.002576
0 59 A G 0.000046
0 59 A - 0.000371
0 59 C A 0.000045
0 59 C C 0.000003
0 59 C U -0.000008
0 59 C G -0.000034
0 59 C - 0.000012
0 59 U A -0.000016
0 59 U C 0.000372
0 59 U U -0.000065
0 59 U G 0.000047
0 59 U - -0.000034
0 59 G A -0.000034
0 59 G C 0.000719
0 59 G U 0.000141
0 59 G G -0.000032
0 59 G - 0.000017
0 59 - A -0.000031
0 59 - C 0.000731
0 59 - U -0.000047
0 59 - G 0.000047
0 59 - - 0.000012
0 60 A A 0.000719
0 60 A C -0.150702
0 60 A U -0.000538
0 60 A G 0.000030
0 60 A - 0.002228
0 60 C A -0.000017
0 60 C C -0.000019
0 60 C U 0.000047
0 60 C G 0.000000
0 60 C - 0.000037
0 60 U A -0.000030
0 60 U C 0.000200
0 60 U U 0.000012
0 60 U G 0.000018
0 60 U - 0.000017
0 60 G A 0.000702
0 60 G C 0.000652
0 60 G U -0.000012
0 60 G G 0.000002
0 60 G - -0.000019
0 60 - A 0.000034
0 60 - C -0.000034
0 60 - U 0.000040
0 60 - G -0.000044
0 60 - - 0.000020
0 61 A A 0.001733
0 61 A C 0.000008
0 61 A U -0.154137
0 61 A G -0.000048
0 61 A - 0.002410
0 61 C A 0.000041
0 61 C C 0.000007
0 61 C U -0.000011
0 61 C G 0.000052
0 61 C - 0.000013
0 61 U A -0.000002
0 61 U C 0.000211
0 61 U U 0.000014
0 61 U G 0.000020
0 61 U - -0.000030
0 61 G A 0.000055
0 61 G C -0.000017
0 61 G U 0.001394
0 61 G G -0.000024
0 61 G - -0.000027
0 61 - A 0.000010
0 61 - C 0.000009
0 61 - U 0.000249
0 61 - G -0.000025
0 61 - - -0.000023
0 62 A A -0.001352
0 62 A C -0.001282
0 62 A U -0.012122
0 62 A G 0.005289
0 62 A - 0.000489
0 62 C A 0.000043
0 62 C C -0.000040
0 62 C U 0.000043
0 62 C G 0.000027
0 62 C - 0.000013
0 62 U A -0.000065
0 62 U C -0.000060
0 62 U U 0.000024
0 62 U G 0.000010
0 62 U - 0.000526
0 62 G A 0.000194
0 62 G C 0.000023
0 62 G U 0.000655
0 62 G G 0.000024
0 62 G - 0.000027
0 62 - A 0.000009
0 62 - C 0.000123
0 62 - U -0.000021
0 62 - G 0.000020
0 62 - - -0.000015
0 63 A A 0.001000
0 63 A C 0.000037
0 63 A U -0.008841
0 63 A G 0.003708
0 63 A - 0.000969
0 63 C A -0.000011
0 63 C C -0.000020
0 63 C U 0.000043
0 63 C G 0.000041
0 63 C - 0.000040
0 63 U A 0.000041
0 63 U C -0.000011
0 63 U U 0.000398
0 63 U G 0.000021
0 63 U - 0.000041
0 63 G A -0.000003
0 63 G C 0.001130
0 63 G U -0.000041
0 63 G G 0.000020
0 63 G - -0.000003
0 63 - A -0.000039
0 63 - C -0.000001
0 63 - U 0.000016
0 63 - G 0.000011
0 63 - - 0.000012
0 64 A A 0.000004
0 64 A C 0.000594
0 64 A U -0.054238
0 64 A G 0.000023
0 64 A - -0.000033
0 64 C A 0.000035
0 64 C C -0.000017
0 64 C U 0.000033
0 64 C G -0.000030
0 64 C - 0.000051
0 64 U A 0.000034
0 64 U C 0.000171
0 64 U U -0.000030
0 64 U G 0.000016
0 64 U - -0.000047
0 64 G A -0.000044
0 64 G C 0.001601
0 64 G U 0.000003
0 64 G G -0.000034
0 64 G - 0.000016
0 64 - A 0.000034
0 64 - C 0.000024
0 64 - U 0.000035
0 64 - G 0.000025
0 64 - - 0.000016
0 65 A A -0.000019
0 65 A C -0.006295
0 65 A U -0.004464
0 65 A G 0.000810
0 65 A - -0.000041
0 65 C A 0.000005
0 65 C C -0.000044
0 65 C U -0.000043
0 65 C G 0.000030
0 65 C - 0.000007
0 65 U A 0.000026
0 65 U C -0.000059
0 65 U U 0.000391
0 65 U G 0.000040
0 65 U - 0.000007
0 65 G A -0.000040
0 65 G C 0.000276
0 65 G U 0.000665
0 65 G G -0.000036
0 65 G - -0.000045
0 65 - A 0.000015
0 65 - C 0.000001
0 65 - U 0.000219
0 65 - G -0.000009
0 65 - - 0.000002
0 66 A A -0.000067
0 66 A C -0.001099