# NB_STEPS 3000
# UP_FREQ 1000
# TEMP 1.000000
# LAMBDA 0.050000
# ID_THRES 1.000000
# ALPHA 1.637346
0 0 A A -0.002212
0 0 C C 0.000875
0 0 U U -0.002260
0 0 G G -0.002319
0 0 - - 0.017459
0 1 A A 0.000830
0 1 A C 0.000417
0 1 A U 0.001144
0 1 A G 0.000413
0 1 A - 0.000031
0 1 C A -0.000085
0 1 C C 0.000020
0 1 C U 0.000883
0 1 C G -0.000077
0 1 C - 0.000694
0 1 U A -0.000110
0 1 U C -0.000559
0 1 U U -0.008480
0 1 U G -0.000006
0 1 U - 0.001839
0 1 G A 0.000321
0 1 G C -0.034659
0 1 G U 0.000001
0 1 G G -0.000052
0 1 G - 0.000009
0 1 - A -0.000034
0 1 - C 0.000012
0 1 - U -0.000004
0 1 - G 0.000093
0 1 - - 0.000014
0 2 A A 0.002085
0 2 A C 0.001511
0 2 A U -0.000523
0 2 A G -0.001078
0 2 A - 0.000819
0 2 C A -0.000025
0 2 C C 0.001305
0 2 C U -0.000002
0 2 C G 0.001277
0 2 C - -0.000005
0 2 U A -0.012938
0 2 U C 0.000908
0 2 U U -0.000305
0 2 U G -0.000300
0 2 U - -0.000004
0 2 G A 0.000575
0 2 G C 0.000302
0 2 G U -0.000017
0 2 G G -0.065466
0 2 G - -0.000028
0 2 - A 0.000778
0 2 - C -0.000002
0 2 - U 0.000050
0 2 - G 0.000172
0 2 - - -0.000022
0 3 A A 0.000763
0 3 A C 0.000912
0 3 A U -0.048599
0 3 A G 0.000013
0 3 A - 0.000013
0 3 C A -0.000021
0 3 C C 0.000395
0 3 C U 0.000707
0 3 C G 0.000005
0 3 C - 0.000049
0 3 U A -0.000033
0 3 U C 0.000878
0 3 U U -0.014710
0 3 U G 0.000537
0 3 U - -0.000019
0 3 G A 0.000026
0 3 G C -0.000725
0 3 G U -0.000335
0 3 G G 0.000035
0 3 G - -0.000008
0 3 - A -0.000002
0 3 - C -0.000024
0 3 - U 0.001385
0 3 - G -0.000013
0 3 - - 0.000042
0 4 A A 0.000028
0 4 A C -0.004669
0 4 A U 0.000415
0 4 A G 0.000009
0 4 A - 0.000048
0 4 C A -0.000026
0 4 C C 0.000482
0 4 C U -0.000078
0 4 C G 0.000029
0 4 C - -0.000027
0 4 U A 0.000024
0 4 U C -0.001311
0 4 U U -0.004066
0 4 U G 0.000929
0 4 U - -0.000024
0 4 G A -0.000040
0 4 G C 0.000615
0 4 G U -0.000245
0 4 G G -0.000013
0 4 G - 0.000030
0 4 - A -0.000045
0 4 - C 0.006004
0 4 - U 0.000007
0 4 - G -0.000015
0 4 - - -0.000031
0 5 A A 0.000034
0 5 A C 0.000744
0 5 A U -0.029296
0 5 A G -0.000045
0 5 A - 0.000087
0 5 C A 0.000008
0 5 C C 0.000657
0 5 C U -0.000303
0 5 C G -0.000007
0 5 C - 0.000046
0 5 U A 0.000619
0 5 U C -0.000144
0 5 U U -0.016953
0 5 U G 0.000017
0 5 U - 0.000006
0 5 G A -0.000044
0 5 G C -0.002588
0 5 G U 0.000570
0 5 G G 0.000042
0 5 G - -0.000039
0 5 - A -0.000028
0 5 - C 0.000006
0 5 - U 0.003599
0 5 - G -0.000003
0 5 - - -0.000028
0 6 A A 0.000042
0 6 A C 0.000583
0 6 A U -0.013193
0 6 A G 0.000025
0 6 A - 0.000037
0 6 C A -0.000005
0 6 C C -0.000015
0 6 C U 0.003315
0 6 C G -0.000001
0 6 C - 0.000010
0 6 U A -0.000022
0 6 U C 0.000655
0 6 U U -0.016314
0 6 U G 0.000001
0 6 U - -0.000003
0 6 G A 0.000023
0 6 G C -0.000013
0 6 G U -0.001730
0 6 G G 0.000042
0 6 G - 0.000015
0 6 - A 0.000028
0 6 - C -0.000021
0 6 - U 0.010333
0 6 - G -0.000020
0 6 - - -0.000022
0 7 A A -0.000050
0 7 A C -0.001407
0 7 A U -0.000037
0 7 A G -0.000027
0 7 A - 0.000049
0 7 C A 0.000047
0 7 C C 0.000678
0 7 C U -0.000040
0 7 C G -0.000038
0 7 C - -0.000047
0 7 U A 0.000603
0 7 U C -0.004549
0 7 U U 0.000934
0 7 U G -0.000047
0 7 U - 0.000034
0 7 G A -0.000045
0 7 G C -0.002320
0 7 G U 0.000038
0 7 G G 0.000021
0 7 G - -0.000044
0 7 - A -0.000027
0 7 - C 0.011233
0 7 - U -0.000038
0 7 - G 0.000035
0 7 - - 0.000032
0 8 A A 0.000447
0 8 A C -0.000047
0 8 A U 0.000035
0 8 A G 0.001037
0 8 A - -0.000006
0 8 C A 0.000279
0 8 C C 0.000710
0 8 C U 0.000012
0 8 C G -0.000469
0 8 C - -0.000043
0 8 U A -0.043431
0 8 U C 0.002117
0 8 U U -0.000008
0 8 U G -0.000621
0 8 U - 0.000022
0 8 G A -0.000109
0 8 G C -0.000666
0 8 G U 0.000017
0 8 G G 0.000240
0 8 G - -0.000026
0 8 - A 0.000084
0 8 - C -0.000016
0 8 - U 0.000018
0 8 - G 0.000686
0 8 - - 0.000007
0 9 A A 0.000035
0 9 A C 0.000803
0 9 A U 0.000039
0 9 A G -0.011366
0 9 A - -0.000046
0 9 C A 0.000010
0 9 C C 0.000048
0 9 C U -0.000000
0 9 C G 0.000081
0 9 C - 0.000023
0 9 U A -0.000011
0 9 U C 0.000668
0 9 U U 0.000003
0 9 U G -0.003708
0 9 U - -0.000011
0 9 G A -0.000045
0 9 G C 0.000047
0 9 G U -0.000030
0 9 G G -0.001920
0 9 G - -0.000048
0 9 - A -0.000042
0 9 - C -0.000042
0 9 - U 0.000747
0 9 - G 0.021195
0 9 - - -0.000023
0 10 A A 0.000041
0 10 A C 0.000041
0 10 A U -0.000005
0 10 A G -0.009364
0 10 A - -0.000012
0 10 C A 0.000042
0 10 C C -0.000000
0 10 C U -0.000025
0 10 C G 0.001161
0 10 C - 0.000009
0 10 U A 0.000002
0 10 U C 0.000017
0 10 U U -0.000000
0 10 U G -0.002266
0 10 U - -0.000008
0 10 G A 0.000024
0 10 G C 0.000021
0 10 G U -0.000027
0 10 G G -0.002258
0 10 G - 0.000042
0 10 - A -0.000042
0 10 - C 0.000042
0 10 - U -0.000043
0 10 - G 0.024812
0 10 - - 0.000042
0 11 A A -0.000009
0 11 A C 0.000022
0 11 A U -0.000042
0 11 A G -0.013545
0 11 A - 0.000027
0 11 C A -0.000033
0 11 C C -0.000003
0 11 C U -0.000032
0 11 C G 0.001348
0 11 C - 0.000005
0 11 U A 0.000017
0 11 U C -0.000045
0 11 U U 0.000008
0 11 U G -0.001894
0 11 U - 0.000033
0 11 G A 0.000043
0 11 G C 0.000033
0 11 G U -0.000045
0 11 G G -0.001902
0 11 G - 0.000020
0 11 - A 0.000034
0 11 - C 0.000005
0 11 - U 0.000005
0 11 - G 0.022509
0 11 - - 0.000005
0 12 A A 0.002304
0 12 A C -0.004263
0 12 A U -0.000084
0 12 A G 0.001068
0 12 A - -0.000014
0 12 C A -0.000047
0 12 C C 0.002435
0 12 C U -0.000003
0 12 C G 0.001932
0 12 C - -0.000004
0 12 U A 0.000019
0 12 U C -0.076185
0 12 U U 0.001069
0 12 U G 0.002457
0 12 U - 0.000016
0 12 G A -0.000006
0 12 G C -0.000270
0 12 G U -0.000029
0 12 G G -0.000938
0 12 G - -0.000019
0 12 - A -0.000011
0 12 - C 0.002524
0 12 - U -0.000031
0 12 - G -0.000043
0 12 - - -0.000028
0 13 A A 0.002162
0 13 A C -0.000044
0 13 A U -0.000084
0 13 A G 0.003072
0 13 A - -0.000032
0 13 C A -0.000075
0 13 C C 0.000155
0 13 C U -0.000033
0 13 C G 0.000378
0 13 C - 0.000032
0 13 U A -0.004967
0 13 U C -0.000060
0 13 U U 0.001686
0 13 U G -0.000601
0 13 U - 0.000004
0 13 G A -0.000017
0 13 G C -0.000043
0 13 G U -0.055573
0 13 G G -0.000141
0 13 G - 0.000218
0 13 - A 0.000647
0 13 - C -0.000016
0 13 - U 0.000044
0 13 - G 0.000032
0 13 - - -0.000034
0 14 A A -0.000020
0 14 A C 0.001671
0 14 A U 0.000037
0 14 A G -0.000631
0 14 A - 0.000020
0 14 C A -0.000047
0 14 C C -0.000065
0 14 C U 0.000205
0 14 C G 0.001038
0 14 C - -0.000036
0 14 U A 0.000010
0 14 U C 0.001565
0 14 U U 0.000025
0 14 U G -0.005081
0 14 U - 0.000027
0 14 G A -0.000031
0 14 G C -0.001660
0 14 G U -0.000026
0 14 G G -0.000255
0 14 G - -0.000011
0 14 - A 0.000009
0 14 - C 0.000015
0 14 - U 0.000049
0 14 - G 0.005752
0 14 - - -0.000001
0 15 A A 0.000029
0 15 A C -0.000038
0 15 A U -0.000017
0 15 A G -0.001777
0 15 A - 0.000400
0 15 C A -0.000035
0 15 C C 0.000029
0 15 C U 0.000033
0 15 C G 0.000307
0 15 C - 0.000018
0 15 U A -0.000046
0 15 U C 0.000691
0 15 U U 0.000017
0 15 U G -0.003166
0 15 U - 0.000000
0 15 G A 0.000029
0 15 G C 0.000009
0 15 G U 0.000023
0 15 G G -0.002994
0 15 G - -0.000030
0 15 - A 0.000047
0 15 - C -0.000030
0 15 - U 0.000018
0 15 - G 0.015015
0 15 - - 0.000018
0 16 A A -0.000022
0 16 A C 0.000619
0 16 A U 0.000023
0 16 A G -0.009470
0 16 A - -0.000005
0 16 C A -0.000026
0 16 C C 0.000043
0 16 C U 0.000006
0 16 C G 0.001092
0 16 C - -0.000006
0 16 U A -0.000002
0 16 U C -0.000047
0 16 U U -0.000047
0 16 U G -0.002258
0 16 U - 0.000030
0 16 G A 0.000015
0 16 G C 0.000032
0 16 G U 0.000045
0 16 G G -0.002204
0 16 G - 0.000014
0 16 - A -0.000023
0 16 - C -0.000007
0 16 - U 0.000016
0 16 - G 0.021611
0 16 - - -0.000023
0 17 A A 0.000067
0 17 A C -0.000071
0 17 A U -0.000968
0 17 A G -0.000013
0 17 A - 0.000045
0 17 C A 0.000025
0 17 C C -0.000047
0 17 C U 0.000333
0 17 C G 0.000045
0 17 C - 0.000043
0 17 U A -0.000042
0 17 U C -0.000078
0 17 U U -0.005248
0 17 U G 0.000432
0 17 U - 0.000036
0 17 G A -0.000034
0 17 G C -0.000007
0 17 G U -0.001222
0 17 G G -0.000040
0 17 G - 0.000020
0 17 - A 0.000025
0 17 - C -0.000001
0 17 - U 0.006403
0 17 - G -0.000005
0 17 - - -0.000041
0 18 A A 0.000045
0 18 A C -0.000050
0 18 A U -0.000054
0 18 A G -0.003029
0 18 A - 0.000018
0 18 C A -0.000012
0 18 C C -0.000039
0 18 C U -0.000028
0 18 C G 0.000307
0 18 C - -0.000039
0 18 U A -0.000048
0 18 U C 0.000002
0 18 U U 0.000019
0 18 U G -0.002725
0 18 U - -0.000035
0 18 G A -0.000019
0 18 G C -0.000003
0 18 G U -0.000024
0 18 G G -0.002565
0 18 G - -0.000007
0 18 - A -0.000031
0 18 - C 0.000011
0 18 - U -0.000050
0 18 - G 0.017413
0 18 - - -0.000039
0 19 A A 0.003879
0 19 A C -0.003699
0 19 A U 0.000180
0 19 A G -0.000066
0 19 A - 0.000853
0 19 C A -0.000436
0 19 C C -0.000047
0 19 C U 0.000348
0 19 C G 0.000007
0 19 C - 0.000751
0 19 U A -0.002216
0 19 U C 0.000776
0 19 U U -0.000564
0 19 U G 0.000006
0 19 U - 0.000434
0 19 G A -0.003314
0 19 G C 0.000273
0 19 G U -0.000020
0 19 G G 0.000028
0 19 G - 0.001082
0 19 - A -0.000048
0 19 - C -0.000026
0 19 - U -0.000048
0 19 - G 0.000107
0 19 - - -0.000013
0 20 A A -0.006758
0 20 A C 0.001619
0 20 A U -0.000037
0 20 A G -0.000014
0 20 A - -0.000003
0 20 C A 0.000182
0 20 C C 0.000009
0 20 C U 0.000033
0 20 C G -0.000057
0 20 C - -0.000037
0 20 U A -0.003095
0 20 U C 0.000332
0 20 U U -0.000050
0 20 U G -0.000052
0 20 U - 0.000628
0 20 G A -0.002662
0 20 G C 0.000252
0 20 G U 0.000045
0 20 G G 0.000028
0 20 G - 0.000030
0 20 - A 0.013805
0 20 - C -0.000021
0 20 - U -0.000010
0 20 - G -0.000027
0 20 - - -0.000012
0 21 A A -0.015853
0 21 A C 0.000013
0 21 A U 0.000027
0 21 A G 0.000030
0 21 A - -0.000012
0 21 C A 0.001750
0 21 C C -0.000047
0 21 C U 0.000014
0 21 C G 0.000050
0 21 C - 0.000027
0 21 U A -0.004995
0 21 U C -0.000042
0 21 U U 0.000422
0 21 U G 0.000007
0 21 U - 0.000009
0 21 G A -0.002808
0 21 G C 0.000020
0 21 G U 0.000021
0 21 G G 0.000025
0 21 G - -0.000005
0 21 - A 0.016650
0 21 - C 0.000044
0 21 - U -0.000043
0 21 - G 0.000007
0 21 - - 0.000030
0 22 A A 0.000427
0 22 A C -0.000031
0 22 A U -0.004799
0 22 A G -0.000086
0 22 A - 0.001273
0 22 C A -0.000028
0 22 C C -0.000055
0 22 C U 0.001890
0 22 C G 0.000003
0 22 C - 0.000457
0 22 U A 0.000920
0 22 U C -0.000007
0 22 U U -0.002804
0 22 U G -0.000016
0 22 U - -0.000059
0 22 G A -0.000053
0 22 G C -0.000058
0 22 G U -0.000356
0 22 G G -0.000019
0 22 G - 0.000001
0 22 - A -0.000001
0 22 - C 0.000015
0 22 - U 0.001619
0 22 - G 0.000044
0 22 - - -0.000046
0 23 A A -0.000042
0 23 A C 0.000824
0 23 A U -0.005549
0 23 A G 0.000125
0 23 A - -0.000062
0 23 C A 0.000043
0 23 C C -0.000027
0 23 C U 0.000150
0 23 C G 0.000033
0 23 C - 0.000020
0 23 U A 0.000361
0 23 U C -0.000043
0 23 U U -0.002875
0 23 U G -0.000007
0 23 U - 0.000018
0 23 G A 0.000016
0 23 G C -0.000039
0 23 G U -0.002361
0 23 G G 0.000004
0 23 G - -0.000006
0 23 - A 0.000021
0 23 - C 0.000035
0 23 - U 0.012708
0 23 - G -0.000010
0 23 - - -0.000023
0 24 A A 0.000040
0 24 A C -0.012126
0 24 A U -0.000014
0 24 A G 0.000426
0 24 A - -0.000013
0 24 C A -0.000012
0 24 C C 0.000868
0 24 C U -0.000017
0 24 C G -0.000010
0 24 C - -0.000031
0 24 U A 0.000033
0 24 U C -0.002194
0 24 U U -0.000017
0 24 U G -0.000017
0 24 U - 0.000007
0 24 G A 0.000003
0 24 G C -0.002222
0 24 G U 0.000026
0 24 G G 0.000019
0 24 G - 0.000014
0 24 - A -0.000013
0 24 - C 0.027758
0 24 - U -0.000027
0 24 - G -0.000027
0 24 - - -0.000027
0 25 A A -0.000028
0 25 A C -0.001380
0 25 A U -0.000022
0 25 A G -0.000037
0 25 A - 0.000393
0 25 C A 0.000010
0 25 C C 0.000298
0 25 C U -0.000044
0 25 C G 0.000044
0 25 C - 0.000009
0 25 U A -0.000015
0 25 U C -0.003666
0 25 U U 0.000640
0 25 U G 0.000027
0 25 U - -0.000011
0 25 G A -0.000018
0 25 G C -0.002630
0 25 G U 0.000002
0 25 G G -0.000035
0 25 G - -0.000025
0 25 - A -0.000025
0 25 - C 0.017717
0 25 - U -0.000025
0 25 - G 0.000025
0 25 - - -0.000025
0 26 A A 0.000038
0 26 A C 0.000486
0 26 A U -0.000073
0 26 A G 0.001615
0 26 A - 0.000031
0 26 C A 0.000005
0 26 C C 0.002264
0 26 C U -0.000016
0 26 C G -0.000074
0 26 C - 0.000229
0 26 U A 0.000008
0 26 U C -0.010000
0 26 U U 0.000003
0 26 U G 0.001597
0 26 U - 0.000013
0 26 G A -0.000045
0 26 G C -0.000293
0 26 G U 0.000002
0 26 G G -0.001761
0 26 G - 0.000001
0 26 - A 0.000003
0 26 - C 0.005791
0 26 - U 0.000041
0 26 - G -0.000014
0 26 - - 0.000039
0 27 A A 0.001323
0 27 A C 0.002446
0 27 A U -0.004407
0 27 A G 0.001664
0 27 A - 0.000021
0 27 C A 0.000094
0 27 C C 0.000427
0 27 C U 0.000013
0 27 C G 0.001324
0 27 C - -0.000029
0 27 U A 0.000939
0 27 U C -0.000327
0 27 U U -0.000125
0 27 U G -0.001060
0 27 U - 0.000381
0 27 G A -0.004296
0 27 G C -0.000173
0 27 G U -0.000045
0 27 G G -0.000017
0 27 G - 0.000270
0 27 - A 0.000034
0 27 - C -0.000031
0 27 - U 0.000047
0 27 - G 0.000634
0 27 - - -0.000028
0 28 A A -0.002961
0 28 A C 0.000038
0 28 A U -0.000036
0 28 A G -0.000044
0 28 A - -0.000040
0 28 C A 0.001440
0 28 C C -0.000049
0 28 C U 0.000049
0 28 C G 0.000018
0 28 C - -0.000041
0 28 U A -0.004437
0 28 U C 0.000044
0 28 U U -0.000042
0 28 U G 0.000599
0 28 U - 0.000001
0 28 G A -0.001840
0 28 G C -0.000011
0 28 G U 0.000024
0 28 G G -0.000010
0 28 G - 0.000040
0 28 - A 0.009831
0 28 - C -0.000037
0 28 - U 0.000023
0 28 - G -0.000023
0 28 - - 0.000043
0 29 A A -0.000023
0 29 A C 0.000449
0 29 A U 0.000367
0 29 A G 0.000749
0 29 A - -0.000039
0 29 C A 0.000028
0 29 C C 0.001353
0 29 C U 0.000012
0 29 C G 0.000011
0 29 C - 0.000041
0 29 U A 0.000026
0 29 U C -0.000901
0 29 U U 0.000028
0 29 U G -0.000005
0 29 U - -0.000044
0 29 G A 0.000004
0 29 G C -0.001847
0 29 G U -0.000018
0 29 G G 0.000006
0 29 G - -0.000025
0 29 - A 0.000041
0 29 - C 0.014627
0 29 - U 0.000049
0 29 - G 0.000041
0 29 - - -0.000026
0 30 A A 0.000035
0 30 A C -0.007294
0 30 A U 0.000024
0 30 A G -0.000014
0 30 A - -0.000028
0 30 C A 0.000042
0 30 C C 0.000216
0 30 C U -0.000052
0 30 C G -0.000004
0 30 C - -0.000003
0 30 U A 0.000017
0 30 U C -0.001366
0 30 U U 0.000003
0 30 U G -0.000013
0 30 U - -0.000025
0 30 G A -0.000008
0 30 G C -0.001849
0 30 G U -0.000039
0 30 G G 0.000007
0 30 G - 0.000011
0 30 - A -0.000007
0 30 - C 0.013718
0 30 - U -0.000043
0 30 - G 0.000042
0 30 - - -0.000041
0 31 A A -0.000011
0 31 A C 0.000037
0 31 A U -0.000047
0 31 A G -0.005627
0 31 A - -0.000040
0 31 C A -0.000048
0 31 C C 0.000026
0 31 C U 0.000012
0 31 C G 0.000350
0 31 C - -0.000021
0 31 U A -0.000043
0 31 U C 0.000012
0 31 U U -0.000027
0 31 U G -0.002362
0 31 U - 0.000038
0 31 G A -0.000014
0 31 G C -0.000050
0 31 G U 0.000026
0 31 G G -0.003012
0 31 G - -0.000009
0 31 - A 0.000056
0 31 - C 0.000040
0 31 - U 0.000047
0 31 - G 0.025593
0 31 - - 0.000026
0 32 A A 0.000025
0 32 A C -0.000003
0 32 A U 0.000047
0 32 A G -0.001259
0 32 A - -0.000048
0 32 C A -0.000001
0 32 C C -0.000007
0 32 C U -0.000030
0 32 C G 0.000979
0 32 C - 0.000556
0 32 U A -0.000050
0 32 U C -0.000012
0 32 U U 0.000033
0 32 U G -0.003569
0 32 U - -0.000005
0 32 G A -0.000002
0 32 G C 0.000156
0 32 G U -0.000016
0 32 G G -0.003266
0 32 G - -0.000023
0 32 - A 0.000046
0 32 - C 0.000043
0 32 - U 0.000039
0 32 - G 0.012663
0 32 - - 0.000029
0 33 A A -0.000016
0 33 A C -0.002956
0 33 A U -0.000020
0 33 A G -0.000006
0 33 A - -0.000039
0 33 C A -0.000033
0 33 C C 0.000115
0 33 C U -0.000050
0 33 C G 0.000002
0 33 C - 0.000001
0 33 U A 0.000047
0 33 U C -0.000327
0 33 U U -0.000166
0 33 U G 0.000029
0 33 U - 0.000017
0 33 G A -0.000001
0 33 G C -0.003392
0 33 G U -0.000015
0 33 G G -0.000004
0 33 G - 0.000025
0 33 - A 0.000003
0 33 - C 0.005997
0 33 - U 0.000038
0 33 - G 0.000002
0 33 - - -0.000038
0 34 A A 0.000024
0 34 A C 0.000038
0 34 A U 0.000007
0 34 A G -0.003156
0 34 A - -0.000007
0 34 C A -0.000018
0 34 C C 0.000011
0 34 C U 0.000040
0 34 C G 0.001477
0 34 C - -0.000006
0 34 U A -0.000021
0 34 U C 0.000693
0 34 U U -0.000007
0 34 U G -0.003356
0 34 U - 0.000028
0 34 G A 0.000013
0 34 G C 0.000042
0 34 G U -0.000021
0 34 G G -0.002213
0 34 G - -0.000024
0 34 - A -0.000041
0 34 - C -0.000007
0 34 - U -0.000023
0 34 - G 0.023006
0 34 - - -0.000022
0 35 A A 0.000043
0 35 A C -0.000039
0 35 A U 0.000043
0 35 A G -0.002019
0 35 A - 0.000005
0 35 C A -0.000012
0 35 C C 0.000034
0 35 C U 0.000013
0 35 C G 0.001086
0 35 C - 0.000047
0 35 U A -0.000003
0 35 U C 0.000032
0 35 U U -0.000036
0 35 U G -0.002207
0 35 U - 0.000047
0 35 G A 0.000021
0 35 G C 0.000028
0 35 G U -0.000018
0 35 G G -0.002632
0 35 G - -0.000038
0 35 - A 0.000047
0 35 - C -0.000008
0 35 - U 0.000047
0 35 - G 0.017390
0 35 - - -0.000038
0 36 A A -0.000044
0 36 A C 0.000024
0 36 A U -0.005737
0 36 A G -0.000037
0 36 A - -0.000021
0 36 C A 0.000012
0 36 C C 0.000010
0 36 C U 0.000279
0 36 C G -0.000020
0 36 C - -0.000037
0 36 U A -0.000041
0 36 U C 0.000029
0 36 U U -0.002266
0 36 U G -0.000022
0 36 U - -0.000048
0 36 G A 0.000028
0 36 G C -0.000012
0 36 G U -0.002525
0 36 G G 0.000037
0 36 G - 0.000034
0 36 - A -0.000012
0 36 - C -0.000011
0 36 - U 0.015329
0 36 - G -0.000027
0 36 - - -0.000037
0 37 A A -0.020312
0 37 A C 0.000017
0 37 A U 0.003608
0 37 A G -0.000420
0 37 A - 0.000008
0 37 C A 0.000980
0 37 C C -0.000028
0 37 C U 0.000999
0 37 C G -0.000229
0 37 C - -0.000005
0 37 U A -0.059014
0 37 U C -0.000014
0 37 U U -0.000065
0 37 U G 0.000823
0 37 U - 0.000047
0 37 G A -0.000306
0 37 G C 0.000109
0 37 G U 0.000077
0 37 G G -0.000725
0 37 G - -0.000001
0 37 - A 0.000387
0 37 - C 0.000000
0 37 - U 0.000026
0 37 - G 0.000705
0 37 - - 0.000022
0 38 A A 0.002104
0 38 A C 0.002772
0 38 A U -0.002567
0 38 A G -0.000086
0 38 A - -0.000050
0 38 C A 0.000351
0 38 C C -0.000026
0 38 C U 0.000247
0 38 C G 0.000258
0 38 C - -0.000021
0 38 U A -0.006643
0 38 U C -0.000063
0 38 U U 0.000620
0 38 U G -0.000051
0 38 U - 0.000007
0 38 G A -0.000096
0 38 G C -0.001030
0 38 G U -0.000020
0 38 G G 0.000224
0 38 G - 0.000028
0 38 - A 0.000060
0 38 - C 0.000653
0 38 - U -0.000046
0 38 - G -0.000039
0 38 - - -0.000016
0 39 A A -0.010594
0 39 A C 0.000012
0 39 A U 0.000049
0 39 A G 0.000837
0 39 A - -0.000051
0 39 C A -0.000116
0 39 C C 0.000024
0 39 C U 0.000007
0 39 C G 0.000044
0 39 C - -0.000007
0 39 U A -0.003330
0 39 U C 0.000038
0 39 U U 0.000015
0 39 U G -0.000003
0 39 U - 0.000008
0 39 G A -0.002091
0 39 G C -0.000013
0 39 G U 0.000006
0 39 G G -0.000020
0 39 G - 0.000042
0 39 - A 0.018542
0 39 - C 0.000046
0 39 - U 0.000000
0 39 - G -0.000001
0 39 - - 0.000034
0 40 A A 0.000044
0 40 A C -0.000044
0 40 A U -0.000005
0 40 A G -0.012396
0 40 A - 0.000605
0 40 C A 0.000021
0 40 C C -0.000020
0 40 C U 0.000020
0 40 C G 0.000752
0 40 C - 0.000015
0 40 U A 0.000025
0 40 U C -0.000007
0 40 U U -0.000030
0 40 U G -0.001839
0 40 U - -0.000053
0 40 G A -0.000033
0 40 G C -0.000016
0 40 G U -0.000037
0 40 G G -0.001905
0 40 G - -0.000040
0 40 - A 0.000018
0 40 - C -0.000025
0 40 - U -0.000021
0 40 - G 0.011182
0 40 - - -0.000043
0 41 A A 0.000017
0 41 A C -0.002740
0 41 A U -0.001670
0 41 A G 0.000032
0 41 A - 0.000262
0 41 C A -0.000047
0 41 C C 0.001416
0 41 C U -0.000033
0 41 C G -0.000040
0 41 C - 0.000027
0 41 U A 0.000042
0 41 U C -0.003952
0 41 U U 0.000705
0 41 U G 0.000543
0 41 U - 0.000136
0 41 G A 0.000047
0 41 G C -0.000142
0 41 G U -0.001341
0 41 G G 0.000049
0 41 G - 0.000020
0 41 - A 0.000078
0 41 - C -0.000050
0 41 - U 0.001405
0 41 - G -0.000045
0 41 - - -0.000022
0 42 A A 0.000004
0 42 A C -0.001928
0 42 A U 0.000007
0 42 A G 0.000002
0 42 A - -0.000021
0 42 C A -0.000013
0 42 C C 0.000370
0 42 C U 0.000017
0 42 C G -0.000050
0 42 C - -0.000007
0 42 U A 0.000011
0 42 U C -0.002200
0 42 U U -0.000026
0 42 U G 0.000035
0 42 U - -0.000012
0 42 G A 0.000237
0 42 G C -0.003621
0 42 G U 0.000033
0 42 G G -0.000048
0 42 G - -0.000021
0 42 - A -0.000021
0 42 - C 0.017665
0 42 - U -0.000021
0 42 - G 0.000010
0 42 - - -0.000011
0 43 A A 0.000034
0 43 A C -0.003965
0 43 A U -0.000042
0 43 A G -0.000002
0 43 A - 0.000015
0 43 C A 0.000008
0 43 C C 0.001479
0 43 C U 0.000013
0 43 C G -0.000015
0 43 C - 0.000043
0 43 U A 0.000006
0 43 U C -0.003087
0 43 U U 0.000029
0 43 U G 0.000669
0 43 U - -0.000021
0 43 G A -0.000035
0 43 G C -0.002232
0 43 G U -0.000024
0 43 G G -0.000043
0 43 G - 0.000045
0 43 - A 0.000026
0 43 - C 0.026865
0 43 - U 0.000026
0 43 - G 0.000042
0 43 - - 0.000042
0 44 A A -0.000093
0 44 A C 0.000012
0 44 A U 0.000349
0 44 A G -0.001060
0 44 A - 0.000020
0 44 C A 0.000038
0 44 C C 0.000015
0 44 C U 0.000050
0 44 C G 0.000279
0 44 C - -0.000012
0 44 U A -0.000041
0 44 U C -0.000037
0 44 U U -0.000020
0 44 U G -0.000329
0 44 U - 0.000044
0 44 G A 0.000009
0 44 G C -0.000013
0 44 G U -0.000043
0 44 G G -0.003434
0 44 G - 0.000035
0 44 - A 0.000026
0 44 - C 0.000043
0 44 - U 0.000102
0 44 - G 0.004914
0 44 - - 0.000025
0 45 A A 0.000005
0 45 A C 0.001013
0 45 A U -0.000003
0 45 A G -0.000005
0 45 A - -0.000048
0 45 C A -0.000009
0 45 C C 0.001326
0 45 C U -0.000029
0 45 C G 0.000514
0 45 C - 0.000028
0 45 U A 0.000039
0 45 U C -0.001629
0 45 U U 0.000017
0 45 U G 0.000014
0 45 U - 0.000001
0 45 G A -0.000009
0 45 G C -0.002851
0 45 G U 0.000014
0 45 G G 0.000160
0 45 G - -0.000014
0 45 - A -0.000018
0 45 - C 0.009418
0 45 - U 0.000009
0 45 - G -0.000009
0 45 - - 0.000028
0 46 A A 0.000025
0 46 A C -0.000039
0 46 A U 0.000523
0 46 A G -0.004791
0 46 A - -0.000000
0 46 C A -0.000035
0 46 C C 0.000015
0 46 C U -0.000031
0 46 C G 0.000100
0 46 C - -0.000044
0 46 U A -0.000056
0 46 U C 0.000050
0 46 U U 0.000010
0 46 U G -0.001179
0 46 U - -0.000006
0 46 G A -0.000000
0 46 G C -0.000037
0 46 G U -0.000044
0 46 G G -0.002839
0 46 G - -0.000004
0 46 - A -0.000024
0 46 - C 0.000036
0 46 - U 0.000027
0 46 - G 0.003039
0 46 - - -0.000022
0 47 A A -0.004445
0 47 A C 0.000011
0 47 A U 0.000013
0 47 A G 0.000890
0 47 A - -0.000048
0 47 C A 0.001234
0 47 C C -0.000038
0 47 C U -0.000043
0 47 C G 0.000024
0 47 C - -0.000019
0 47 U A -0.003177
0 47 U C 0.000042
0 47 U U -0.000006
0 47 U G 0.000013
0 47 U - -0.000016
0 47 G A -0.002336
0 47 G C 0.000012
0 47 G U -0.000024
0 47 G G 0.000028
0 47 G - -0.000021
0 47 - A 0.011404
0 47 - C 0.000008
0 47 - U -0.000008
0 47 - G -0.000014
0 47 - - 0.000007
0 48 A A -0.000050
0 48 A C 0.000909
0 48 A U -0.000025
0 48 A G -0.011036
0 48 A - 0.000945
0 48 C A 0.000647
0 48 C C -0.000080
0 48 C U 0.000023
0 48 C G 0.000283
0 48 C - 0.000034
0 48 U A -0.000040
0 48 U C 0.000435
0 48 U U 0.000028
0 48 U G -0.000987
0 48 U - -0.000043
0 48 G A 0.000001
0 48 G C -0.002333
0 48 G U 0.000049
0 48 G G 0.000117
0 48 G - 0.000026
0 48 - A -0.000024
0 48 - C 0.000008
0 48 - U 0.000016
0 48 - G 0.000750
0 48 - - -0.000009
0 49 A A 0.000041
0 49 A C -0.006699
0 49 A U -0.000054
0 49 A G 0.000368
0 49 A - 0.000093
0 49 C A -0.000004
0 49 C C 0.001281
0 49 C U -0.000038
0 49 C G 0.000030
0 49 C - 0.000047
0 49 U A -0.000028
0 49 U C -0.003868
0 49 U U -0.000047
0 49 U G 0.000685
0 49 U - 0.000450
0 49 G A -0.000038
0 49 G C -0.001525
0 49 G U -0.000057
0 49 G G -0.000026
0 49 G - 0.000050
0 49 - A -0.000034
0 49 - C 0.008554
0 49 - U 0.000043
0 49 - G -0.000039
0 49 - - 0.000041
0 50 A A 0.000031
0 50 A C 0.000543
0 50 A U 0.000765
0 50 A G -0.001049
0 50 A - 0.001392
0 50 C A 0.000482
0 50 C C 0.000712
0 50 C U -0.000036
0 50 C G -0.000009
0 50 C - 0.000007
0 50 U A 0.000037
0 50 U C -0.000712
0 50 U U 0.000883
0 50 U G -0.000499
0 50 U - 0.000246
0 50 G A -0.000012
0 50 G C -0.000382
0 50 G U -0.000036
0 50 G G -0.000536
0 50 G - -0.000033
0 50 - A -0.000002
0 50 - C -0.000017
0 50 - U 0.000029
0 50 - G 0.000030
0 50 - - 0.000606
0 51 A A 0.000211
0 51 A C 0.000116
0 51 A U -0.000200
0 51 A G 0.001145
0 51 A - 0.000860
0 51 C A -0.000018
0 51 C C 0.000565
0 51 C U -0.000009
0 51 C G 0.000343
0 51 C - 0.000003
0 51 U A -0.000367
0 51 U C -0.000041
0 51 U U -0.000414
0 51 U G 0.000502
0 51 U - 0.000005
0 51 G A -0.000076
0 51 G C -0.000021
0 51 G U 0.000377
0 51 G G -0.002477
0 51 G - -0.000013
0 51 - A 0.000064
0 51 - C -0.000014
0 51 - U 0.000020
0 51 - G -0.000021
0 51 - - 0.000038
0 52 A A 0.000856
0 52 A C 0.003869
0 52 A U -0.002782
0 52 A G 0.000513
0 52 A - 0.000042
0 52 C A -0.000058
0 52 C C 0.002561
0 52 C U 0.000213
0 52 C G -0.000008
0 52 C - -0.000003
0 52 U A -0.001225
0 52 U C 0.000941
0 52 U U -0.000147
0 52 U G -0.000410
0 52 U - 0.000043
0 52 G A 0.000006
0 52 G C -0.001383
0 52 G U -0.000076
0 52 G G -0.000007
0 52 G - 0.000036
0 52 - A -0.000004
0 52 - C 0.000031
0 52 - U 0.000019
0 52 - G -0.000044
0 52 - - 0.000026
0 53 A A 0.003219
0 53 A C -0.000470
0 53 A U -0.000077
0 53 A G 0.000334
0 53 A - 0.000829
0 53 C A -0.000058
0 53 C C 0.000183
0 53 C U 0.000348
0 53 C G -0.000056
0 53 C - -0.000000
0 53 U A -0.000028
0 53 U C 0.000153
0 53 U U -0.000987
0 53 U G 0.000138
0 53 U - 0.000843
0 53 G A -0.000044
0 53 G C -0.003506
0 53 G U 0.000415
0 53 G G -0.000020
0 53 G - 0.000212
0 53 - A 0.000021
0 53 - C 0.000641
0 53 - U -0.000025
0 53 - G 0.000006
0 53 - - -0.000020
0 54 A A -0.002376
0 54 A C 0.000852
0 54 A U 0.000218
0 54 A G 0.000753
0 54 A - 0.000091
0 54 C A 0.000021
0 54 C C 0.000040
0 54 C U 0.000111
0 54 C G -0.000020
0 54 C - 0.000011
0 54 U A -0.000790
0 54 U C -0.000035
0 54 U U 0.000036
0 54 U G 0.000315
0 54 U - -0.000010
0 54 G A -0.000872
0 54 G C -0.000012
0 54 G U -0.000003
0 54 G G -0.000745
0 54 G - -0.000005
0 54 - A 0.000733
0 54 - C 0.000030
0 54 - U 0.000010
0 54 - G -0.000036
0 54 - - -0.000049
0 55 A A -0.000032
0 55 A C -0.000089
0 55 A U 0.000925
0 55 A G -0.005360
0 55 A - 0.000046
0 55 C A -0.000011
0 55 C C 0.000018
0 55 C U 0.000035
0 55 C G 0.001893
0 55 C - 0.000021
0 55 U A -0.000018
0 55 U C 0.000322
0 55 U U -0.000035
0 55 U G -0.002725
0 55 U - 0.000035
0 55 G A -0.000010
0 55 G C -0.000013
0 55 G U -0.000001
0 55 G G -0.003661
0 55 G - 0.000221
0 55 - A 0.000014
0 55 - C -0.000038
0 55 - U -0.000046
0 55 - G 0.002823
0 55 - - 0.000032
0 56 A A -0.000204
0 56 A C -0.007087
0 56 A U 0.002021
0 56 A G 0.000640
0 56 A - -0.000002
0 56 C A -0.000052
0 56 C C 0.000283
0 56 C U -0.000075
0 56 C G -0.000009
0 56 C - 0.000675
0 56 U A 0.000248
0 56 U C -0.001876
0 56 U U -0.000279
0 56 U G -0.000003
0 56 U - -0.000021
0 56 G A 0.000034
0 56 G C -0.000873
0 56 G U -0.000724
0 56 G G 0.000019
0 56 G - 0.000250
0 56 - A 0.000032
0 56 - C 0.000013
0 56 - U 0.000666
0 56 - G 0.000044
0 56 - - -0.000033
0 57 A A 0.001078
0 57 A C 0.000014
0 57 A U 0.001693
0 57 A G 0.000005
0 57 A - 0.000009
0 57 C A -0.000058
0 57 C C 0.000398
0 57 C U -0.000056
0 57 C G 0.001201
0 57 C - -0.000006
0 57 U A -0.000876
0 57 U C -0.000006
0 57 U U -0.000444
0 57 U G -0.000056
0 57 U - 0.000151
0 57 G A -0.000283
0 57 G C -0.000029
0 57 G U -0.001081
0 57 G G 0.000008
0 57 G - 0.000031
0 57 - A 0.000030
0 57 - C -0.000041
0 57 - U -0.000039
0 57 - G 0.000100
0 57 - - -0.000002
0 58 A A 0.000041
0 58 A C -0.000013
0 58 A U -0.000007
0 58 A G -0.011253
0 58 A - -0.000020
0 58 C A -0.000034
0 58 C C 0.000029
0 58 C U -0.000045
0 58 C G 0.001240
0 58 C - 0.000024
0 58 U A 0.000026
0 58 U C 0.000026
0 58 U U -0.000028
0 58 U G -0.002200
0 58 U - -0.000046
0 58 G A -0.000013
0 58 G C 0.000036
0 58 G U 0.000017
0 58 G G -0.002253
0 58 G - 0.000016
0 58 - A 0.000016
0 58 - C -0.000002
0 58 - U -0.000009
0 58 - G 0.019056
0 58 - - 0.000013
0 59 A A -0.010858
0 59 A C -0.000041
0 59 A U -0.000017
0 59 A G -0.000001
0 59 A - 0.000024
0 59 C A 0.000001
0 59 C C 0.000040
0 59 C U -0.000001
0 59 C G 0.000032
0 59 C - -0.000046
0 59 U A -0.002199
0 59 U C 0.000008
0 59 U U 0.000007
0 59 U G 0.000007
0 59 U - 0.000011
0 59 G A -0.002194
0 59 G C 0.000014
0 59 G U -0.000039
0 59 G G -0.000013
0 59 G - 0.000041
0 59 - A 0.027217
0 59 - C -0.000037
0 59 - U -0.000035
0 59 - G 0.000047
0 59 - - 0.000047
0 60 A A -0.000004
0 60 A C 0.000303
0 60 A U 0.001720
0 60 A G 0.001207
0 60 A - -0.000036
0 60 C A -0.000036
0 60 C C 0.001249
0 60 C U -0.000465
0 60 C G 0.000021
0 60 C - 0.000021
0 60 U A -0.000059
0 60 U C 0.002967
0 60 U U -0.005383
0 60 U G 0.001599
0 60 U - 0.000035
0 60 G A 0.000966
0 60 G C -0.000541
0 60 G U -0.001916
0 60 G G -0.000034
0 60 G - -0.000001
0 60 - A -0.000030
0 60 - C 0.000030
0 60 - U 0.000679
0 60 - G -0.000020
0 60 - - 0.000043
0 61 A A 0.000025
0 61 A C -0.001651
0 61 A U 0.001209
0 61 A G 0.001859
0 61 A - -0.000034
0 61 C A 0.000009
0 61 C C -0.000066
0 61 C U 0.000029
0 61 C G 0.000172
0 61 C - 0.000017
0 61 U A 0.000025
0 61 U C 0.000520
0 61 U U -0.003958
0 61 U G 0.000035
0 61 U - 0.000033
0 61 G A 0.000022
0 61 G C -0.003450
0 61 G U 0.000659
0 61 G G -0.000007
0 61 G - 0.000015
0 61 - A 0.000032
0 61 - C 0.000682
0 61 - U -0.000048
0 61 - G 0.000013
0 61 - - -0.000007
0 62 A A 0.000042
0 62 A C 0.000583
0 62 A U 0.001014
0 62 A G -0.000034
0 62 A - -0.000047
0 62 C A -0.000043
0 62 C C 0.000173
0 62 C U 0.000361
0 62 C G -0.000007
0 62 C - 0.000005
0 62 U A 0.000321
0 62 U C -0.001594
0 62 U U -0.001181
0 62 U G -0.000014
0 62 U - 0.000047
0 62 G A -0.001051
0 62 G C -0.000378
0 62 G U -0.000172
0 62 G G 0.000256
0 62 G - -0.000044
0 62 - A 0.000015
0 62 - C -0.000031
0 62 - U 0.000779
0 62 - G 0.000027
0 62 - - 0.000037
0 63 A A -0.000071
0 63 A C -0.000029
0 63 A U -0.000040
0 63 A G -0.002439
0 63 A - 0.000012
0 63 C A 0.000605
0 63 C C 0.000036
0 63 C U -0.000044
0 63 C G -0.000453
0 63 C - 0.000027
0 63 U A 0.000099
0 63 U C -0.000006
0 63 U U -0.000051
0 63 U G -0.003035
0 63 U - 0.000927
0 63 G A -0.000022
0 63 G C 0.000049
0 63 G U 0.000006
0 63 G G -0.002978
0 63 G - 0.000017
0 63 - A 0.000046
0 63 - C 0.000018
0 63 - U 0.000039
0 63 - G 0.002518
0 63 - - -0.000015
0 64 A A -0.000013
0 64 A C 0.000036
0 64 A U 0.000020
0 64 A G -0.009546
0 64 A - 0.000124
0 64 C A -0.000001
0 64 C C -0.000003
0 64 C U 0.000005
0 64 C G 0.001338
0 64 C - 0.000047
0 64 U A 0.000019
0 64 U C 0.000023
0 64 U U -0.000012
0 64 U G -0.003351
0 64 U - -0.000022
0 64 G A 0.000022
0 64 G C 0.000003
0 64 G U -0.000002
0 64 G G -0.002347
0 64 G - 0.000030
0 64 - A -0.000012
0 64 - C -0.000010
0 64 - U 0.000047
0 64 - G 0.017853
0 64 - - -0.000022
0 65 A A 0.000035
0 65 A C -0.000007
0 65 A U -0.014571
0 65 A G 0.000047
0 65 A - 0.000018
0 65 C A 0.000033
0 65 C C -0.000007
0 65 C U 0.000462
0 65 C G -0.000038
0 65 C - 0.000042
0 65 U A -0.000012
0 65 U C 0.000040
0 65 U U -0.001799
0 65 U G 0.000001
0 65 U - -0.000016
0 65 G A 0.000172
0 65 G C 0.000046
0 65 G U -0.003644
0 65 G G 0.000032
0 65 G - 0.000024
0 65 - A -0.000041
0 65 - C -0.000043
0 65 - U 0.016155