# NB_STEPS 3000
# UP_FREQ 1000
# TEMP 1.000000
# LAMBDA 0.050000
# ID_THRES 1.000000
# ALPHA 1.000000
0 0 A A 0.000047
0 0 C C -0.001979
0 0 U U 0.000935
0 0 G G 0.000000
0 0 - - 0.001135
0 1 A A -0.000034
0 1 A C 0.000252
0 1 A U -0.000034
0 1 A G -0.000015
0 1 A - -0.000034
0 1 C A -0.000021
0 1 C C -0.112359
0 1 C U -0.000052
0 1 C G -0.000009
0 1 C - 0.000009
0 1 U A 0.000014
0 1 U C 0.000985
0 1 U U -0.000018
0 1 U G -0.000034
0 1 U - 0.000003
0 1 G A -0.000034
0 1 G C -0.000041
0 1 G U -0.000017
0 1 G G -0.000015
0 1 G - -0.000020
0 1 - A -0.000015
0 1 - C 0.001387
0 1 - U -0.000034
0 1 - G 0.000029
0 1 - - -0.000034
0 2 A A 0.000013
0 2 A C 0.000049
0 2 A U 0.000007
0 2 A G 0.000076
0 2 A - -0.000026
0 2 C A 0.000798
0 2 C C -0.033185
0 2 C U -0.000020
0 2 C G -0.000534
0 2 C - 0.000005
0 2 U A -0.000000
0 2 U C 0.000912
0 2 U U 0.000042
0 2 U G 0.000025
0 2 U - -0.000006
0 2 G A -0.000004
0 2 G C -0.000008
0 2 G U -0.000050
0 2 G G -0.000034
0 2 G - 0.000010
0 2 - A 0.000007
0 2 - C -0.000010
0 2 - U -0.000005
0 2 - G 0.000133
0 2 - - -0.000010
0 3 A A -0.000011
0 3 A C -0.000030
0 3 A U -0.000011
0 3 A G 0.000274
0 3 A - -0.000030
0 3 C A 0.000049
0 3 C C -0.000023
0 3 C U 0.000045
0 3 C G -0.169921
0 3 C - -0.000011
0 3 U A -0.000012
0 3 U C -0.000016
0 3 U U -0.000030
0 3 U G 0.000935
0 3 U - -0.000009
0 3 G A -0.000030
0 3 G C -0.000030
0 3 G U -0.000030
0 3 G G -0.000006
0 3 G - -0.000013
0 3 - A -0.000030
0 3 - C -0.000013
0 3 - U -0.000030
0 3 - G 0.001586
0 3 - - -0.000030
0 4 A A 0.000256
0 4 A C 0.000011
0 4 A U 0.000011
0 4 A G 0.000027
0 4 A - 0.000011
0 4 C A -0.137565
0 4 C C 0.000036
0 4 C U 0.000963
0 4 C G 0.000052
0 4 C - 0.000046
0 4 U A 0.000928
0 4 U C 0.000011
0 4 U U 0.000027
0 4 U G 0.000011
0 4 U - 0.000045
0 4 G A -0.000049
0 4 G C 0.000029
0 4 G U -0.000020
0 4 G G 0.000027
0 4 G - 0.000011
0 4 - A 0.001539
0 4 - C 0.000027
0 4 - U 0.000027
0 4 - G 0.000029
0 4 - - 0.000011
0 5 A A -0.000040
0 5 A C 0.000213
0 5 A U 0.000025
0 5 A G 0.000038
0 5 A - 0.000025
0 5 C A 0.000040
0 5 C C -0.123338
0 5 C U 0.000946
0 5 C G 0.000031
0 5 C - -0.000018
0 5 U A 0.000025
0 5 U C 0.000924
0 5 U U -0.000039
0 5 U G 0.000044
0 5 U - -0.000028
0 5 G A 0.000041
0 5 G C -0.000060
0 5 G U 0.000025
0 5 G G 0.000042
0 5 G - 0.000023
0 5 - A 0.000041
0 5 - C 0.001433
0 5 - U 0.000025
0 5 - G 0.000044
0 5 - - 0.000044
0 6 A A -0.000005
0 6 A C -0.000009
0 6 A U -0.000007
0 6 A G 0.000206
0 6 A - -0.000022
0 6 C A -0.000036
0 6 C C 0.000020
0 6 C U 0.000052
0 6 C G -0.088434
0 6 C - 0.000361
0 6 U A 0.000006
0 6 U C 0.000011
0 6 U U 0.000015
0 6 U G 0.000990
0 6 U - -0.000022
0 6 G A -0.000009
0 6 G C -0.000003
0 6 G U -0.000022
0 6 G G -0.000043
0 6 G - -0.000007
0 6 - A 0.000008
0 6 - C -0.000004
0 6 - U -0.000006
0 6 - G 0.000312
0 6 - - 0.000031
0 7 A A 0.000376
0 7 A C 0.000040
0 7 A U 0.000040
0 7 A G 0.000040
0 7 A - 0.000040
0 7 C A -0.174990
0 7 C C 0.000013
0 7 C U 0.000028
0 7 C G 0.000029
0 7 C - -0.000010
0 7 U A 0.000904
0 7 U C -0.000026
0 7 U U 0.000040
0 7 U G 0.000040
0 7 U - -0.000040
0 7 G A -0.000045
0 7 G C 0.000040
0 7 G U 0.000040
0 7 G G 0.000040
0 7 G - -0.000039
0 7 - A 0.001581
0 7 - C 0.000040
0 7 - U 0.000040
0 7 - G 0.000040
0 7 - - 0.000053
0 8 A A 0.000018
0 8 A C 0.000020
0 8 A U 0.000020
0 8 A G 0.000045
0 8 A - 0.000630
0 8 C A 0.000464
0 8 C C 0.009573
0 8 C U 0.000741
0 8 C G -0.387007
0 8 C - 0.001897
0 8 U A 0.000000
0 8 U C 0.000040
0 8 U U 0.000020
0 8 U G 0.001011
0 8 U - -0.000008
0 8 G A 0.000021
0 8 G C -0.000014
0 8 G U -0.000035
0 8 G G -0.000030
0 8 G - -0.000078
0 8 - A -0.000003
0 8 - C 0.000020
0 8 - U 0.000019
0 8 - G 0.001085
0 8 - - 0.000004
0 9 A A -0.000035
0 9 A C 0.000001
0 9 A U -0.000049
0 9 A G 0.000077
0 9 A - -0.000049
0 9 C A -0.010861
0 9 C C -0.000508
0 9 C U 0.002870
0 9 C G -0.002440
0 9 C - 0.007837
0 9 U A 0.000963
0 9 U C 0.000036
0 9 U U 0.000018
0 9 U G 0.000006
0 9 U - 0.000019
0 9 G A -0.000030
0 9 G C -0.000011
0 9 G U 0.000000
0 9 G G -0.000054
0 9 G - 0.000001
0 9 - A -0.000016
0 9 - C -0.000031
0 9 - U 0.000016
0 9 - G 0.000015
0 9 - - -0.000048
0 10 A A -0.000039
0 10 A C -0.000005
0 10 A U -0.000031
0 10 A G 0.000015
0 10 A - 0.000012
0 10 C A 0.002669
0 10 C C -0.006650
0 10 C U -0.004312
0 10 C G -0.001693
0 10 C - 0.003197
0 10 U A -0.000039
0 10 U C 0.000006
0 10 U U -0.000016
0 10 U G -0.000044
0 10 U - 0.000993
0 10 G A 0.000034
0 10 G C -0.000007
0 10 G U -0.000036
0 10 G G -0.000067
0 10 G - -0.000039
0 10 - A -0.000039
0 10 - C 0.000378
0 10 - U -0.000020
0 10 - G -0.000044
0 10 - - -0.000040
0 11 A A 0.000007
0 11 A C 0.000024
0 11 A U -0.000010
0 11 A G 0.000111
0 11 A - 0.000028
0 11 C A -0.000034
0 11 C C -0.000055
0 11 C U -0.000015
0 11 C G -0.050339
0 11 C - 0.000666
0 11 U A 0.000033
0 11 U C 0.000012
0 11 U U 0.000041
0 11 U G 0.000986
0 11 U - 0.000042
0 11 G A 0.000043
0 11 G C 0.000030
0 11 G U 0.000027
0 11 G G -0.000072
0 11 G - -0.000004
0 11 - A 0.000027
0 11 - C -0.000045
0 11 - U 0.000031
0 11 - G 0.001212
0 11 - - 0.000050
0 12 A A -0.000013
0 12 A C 0.000032
0 12 A U 0.000027
0 12 A G 0.000030
0 12 A - 0.000009
0 12 C A -0.001572
0 12 C C -0.032046
0 12 C U -0.043361
0 12 C G 0.008886
0 12 C - 0.011945
0 12 U A 0.000029
0 12 U C 0.000944
0 12 U U 0.000035
0 12 U G 0.000043
0 12 U - -0.000012
0 12 G A -0.000050
0 12 G C -0.000055
0 12 G U -0.000015
0 12 G G -0.000041
0 12 G - -0.000002
0 12 - A -0.000009
0 12 - C 0.000459
0 12 - U 0.000048
0 12 - G 0.000030
0 12 - - 0.000043
0 13 A A 0.000030
0 13 A C 0.000024
0 13 A U -0.000050
0 13 A G -0.000040
0 13 A - -0.000031
0 13 C A 0.000670
0 13 C C 0.002965
0 13 C U -0.001048
0 13 C G -0.011922
0 13 C - 0.007642
0 13 U A 0.000042
0 13 U C -0.000013
0 13 U U 0.000022
0 13 U G 0.000956
0 13 U - 0.000003
0 13 G A -0.000004
0 13 G C -0.000042
0 13 G U -0.000009
0 13 G G -0.000021
0 13 G - 0.000011
0 13 - A -0.000050
0 13 - C 0.000009
0 13 - U 0.000040
0 13 - G 0.000438
0 13 - - 0.000030
0 14 A A -0.000007
0 14 A C 0.000040
0 14 A U -0.000028
0 14 A G -0.000022
0 14 A - -0.000028
0 14 C A 0.002210
0 14 C C -0.017023
0 14 C U -0.007400
0 14 C G 0.000999
0 14 C - 0.000077
0 14 U A 0.000010
0 14 U C -0.000039
0 14 U U 0.000026
0 14 U G 0.000996
0 14 U - 0.000037
0 14 G A -0.000029
0 14 G C -0.000080
0 14 G U 0.000049
0 14 G G 0.000018
0 14 G - 0.000011
0 14 - A -0.000023
0 14 - C 0.001216
0 14 - U -0.000026
0 14 - G -0.000028
0 14 - - -0.000025
0 15 A A -0.000032
0 15 A C -0.000042
0 15 A U -0.000030
0 15 A G 0.000000
0 15 A - 0.000038
0 15 C A -0.001282
0 15 C C -0.159068
0 15 C U 0.000271
0 15 C G 0.000129
0 15 C - 0.000027
0 15 U A -0.000014
0 15 U C 0.000991
0 15 U U 0.000051
0 15 U G 0.000053
0 15 U - 0.000021
0 15 G A -0.000059
0 15 G C 0.000020
0 15 G U 0.000035
0 15 G G 0.000020
0 15 G - 0.000020
0 15 - A -0.000004
0 15 - C 0.001507
0 15 - U 0.000017
0 15 - G 0.000000
0 15 - - 0.000037
0 16 A A -0.000041
0 16 A C -0.000041
0 16 A U -0.000023
0 16 A G 0.000298
0 16 A - -0.000004
0 16 C A 0.000030
0 16 C C 0.000025
0 16 C U 0.000556
0 16 C G -0.155480
0 16 C - 0.000015
0 16 U A -0.000041
0 16 U C -0.000041
0 16 U U -0.000012
0 16 U G 0.000930
0 16 U - -0.000024
0 16 G A -0.000041
0 16 G C -0.000041
0 16 G U -0.000041
0 16 G G -0.000012
0 16 G - -0.000041
0 16 - A -0.000041
0 16 - C -0.000041
0 16 - U -0.000041
0 16 - G 0.001485
0 16 - - -0.000041
0 17 A A 0.000003
0 17 A C 0.000023
0 17 A U 0.000296
0 17 A G 0.000003
0 17 A - 0.000021
0 17 C A -0.000011
0 17 C C -0.000036
0 17 C U -0.167919
0 17 C G 0.000029
0 17 C - 0.000018
0 17 U A 0.000021
0 17 U C 0.000016
0 17 U U 0.000911
0 17 U G 0.000022
0 17 U - 0.000003
0 17 G A 0.000023
0 17 G C 0.000021
0 17 G U -0.000087
0 17 G G 0.000003
0 17 G - 0.000023
0 17 - A 0.000003
0 17 - C 0.000003
0 17 - U 0.001516
0 17 - G 0.000040
0 17 - - 0.000003
0 18 A A 0.000273
0 18 A C 0.000029
0 18 A U 0.000029
0 18 A G 0.000029
0 18 A - -0.000034
0 18 C A -0.155150
0 18 C C -0.000037
0 18 C U -0.000043
0 18 C G -0.000032
0 18 C - -0.000031
0 18 U A 0.000922
0 18 U C -0.000032
0 18 U U 0.000046
0 18 U G 0.000029
0 18 U - -0.000017
0 18 G A -0.000048
0 18 G C 0.000029
0 18 G U 0.000029
0 18 G G 0.000049
0 18 G - 0.000029
0 18 - A 0.001513
0 18 - C 0.000029
0 18 - U 0.000029
0 18 - G 0.000049
0 18 - - 0.000029
0 19 A A 0.000006
0 19 A C 0.000273
0 19 A U 0.000021
0 19 A G 0.000006
0 19 A - 0.000006
0 19 C A 0.000371
0 19 C C -0.128665
0 19 C U -0.000020
0 19 C G 0.000041
0 19 C - 0.000169
0 19 U A 0.000006
0 19 U C -0.000030
0 19 U U 0.000926
0 19 U G 0.000026
0 19 U - 0.000006
0 19 G A 0.000006
0 19 G C -0.000011
0 19 G U 0.000035
0 19 G G 0.000023
0 19 G - 0.000043
0 19 - A 0.000006
0 19 - C 0.001445
0 19 - U 0.000006
0 19 - G 0.000006
0 19 - - -0.000041
0 20 A A 0.000049
0 20 A C 0.000301
0 20 A U 0.000049
0 20 A G 0.000049
0 20 A - 0.000033
0 20 C A 0.000749
0 20 C C -0.133983
0 20 C U -0.000022
0 20 C G -0.000020
0 20 C - -0.000036
0 20 U A 0.000049
0 20 U C 0.000939
0 20 U U 0.000033
0 20 U G 0.000033
0 20 U - 0.000044
0 20 G A 0.000033
0 20 G C -0.000076
0 20 G U 0.000053
0 20 G G 0.000049
0 20 G - 0.000045
0 20 - A 0.000612
0 20 - C -0.000008
0 20 - U 0.000033
0 20 - G 0.000033
0 20 - - 0.000049
0 21 A A 0.000047
0 21 A C 0.000156
0 21 A U 0.000030
0 21 A G 0.000044
0 21 A - 0.000031
0 21 C A 0.000936
0 21 C C -0.000446
0 21 C U -0.000029
0 21 C G -0.053210
0 21 C - -0.000037
0 21 U A 0.000032
0 21 U C 0.000044
0 21 U U -0.000014
0 21 U G 0.000001
0 21 U - 0.000946
0 21 G A 0.000047
0 21 G C -0.000082
0 21 G U -0.000030
0 21 G G 0.000026
0 21 G - -0.000047
0 21 - A 0.000012
0 21 - C 0.000255
0 21 - U -0.000030
0 21 - G 0.000048
0 21 - - 0.000028
0 22 A A -0.000043
0 22 A C -0.000025
0 22 A U -0.000043
0 22 A G 0.000214
0 22 A - -0.000024
0 22 C A -0.000038
0 22 C C -0.000034
0 22 C U -0.000023
0 22 C G -0.102831
0 22 C - -0.000023
0 22 U A -0.000034
0 22 U C -0.000007
0 22 U U -0.000025
0 22 U G 0.000988
0 22 U - -0.000015
0 22 G A -0.000024
0 22 G C -0.000043
0 22 G U -0.000023
0 22 G G -0.000059
0 22 G - -0.000043
0 22 - A -0.000043
0 22 - C -0.000012
0 22 - U -0.000043
0 22 - G 0.001351
0 22 - - -0.000015
0 23 A A 0.000044
0 23 A C 0.000623
0 23 A U 0.000038
0 23 A G 0.002566
0 23 A - 0.000037
0 23 C A 0.002757
0 23 C C 0.028397
0 23 C U 0.000335
0 23 C G -1.001219
0 23 C - -0.000011
0 23 U A 0.000014
0 23 U C -0.000004
0 23 U U -0.000008
0 23 U G 0.014751
0 23 U - 0.000971
0 23 G A -0.000014
0 23 G C -0.000057
0 23 G U 0.000029
0 23 G G 0.098008
0 23 G - 0.000070
0 23 - A 0.000037
0 23 - C 0.000018
0 23 - U 0.000037
0 23 - G 0.002271
0 23 - - 0.000567
0 24 A A -0.000042
0 24 A C 0.000012
0 24 A U 0.000033
0 24 A G 0.000008
0 24 A - -0.000003
0 24 C A -0.004894
0 24 C C 0.000613
0 24 C U -0.043399
0 24 C G 0.014419
0 24 C - 0.016546
0 24 U A -0.000006
0 24 U C -0.000037
0 24 U U 0.000039
0 24 U G 0.000968
0 24 U - 0.000004
0 24 G A -0.000053
0 24 G C 0.000002
0 24 G U 0.000013
0 24 G G 0.000018
0 24 G - 0.000007
0 24 - A 0.000050
0 24 - C 0.000001
0 24 - U -0.000032
0 24 - G -0.000044
0 24 - - 0.000038
0 25 A A 0.000012
0 25 A C -0.000051
0 25 A U -0.000027
0 25 A G 0.000018
0 25 A - 0.000039
0 25 C A -0.000505
0 25 C C -0.005955
0 25 C U 0.000708
0 25 C G -0.000357
0 25 C - 0.019851
0 25 U A 0.000922
0 25 U C -0.000048
0 25 U U -0.000049
0 25 U G 0.000019
0 25 U - -0.000009
0 25 G A 0.000011
0 25 G C -0.000015
0 25 G U -0.000002
0 25 G G -0.000052
0 25 G - -0.000045
0 25 - A 0.000007
0 25 - C -0.000026
0 25 - U -0.000025
0 25 - G -0.000007
0 25 - - 0.000015
0 26 A A 0.000019
0 26 A C 0.000025
0 26 A U 0.000044
0 26 A G 0.000024
0 26 A - 0.000025
0 26 C A -0.000997
0 26 C C -0.006061
0 26 C U 0.001548
0 26 C G -0.000309
0 26 C - 0.001452
0 26 U A 0.000000
0 26 U C 0.000044
0 26 U U 0.000004
0 26 U G -0.000050
0 26 U - 0.000962
0 26 G A -0.000074
0 26 G C 0.000007
0 26 G U -0.000016
0 26 G G 0.000041
0 26 G - 0.000025
0 26 - A 0.001156
0 26 - C -0.000021
0 26 - U 0.000010
0 26 - G 0.000010
0 26 - - 0.000010
0 27 A A 0.000040
0 27 A C 0.000063
0 27 A U -0.000046
0 27 A G 0.000033
0 27 A - 0.000019
0 27 C A -0.000071
0 27 C C -0.006032
0 27 C U 0.008699
0 27 C G -0.000224
0 27 C - -0.000093
0 27 U A 0.000002
0 27 U C 0.000040
0 27 U U 0.000036
0 27 U G -0.000040
0 27 U - 0.000973
0 27 G A 0.000004
0 27 G C -0.000043
0 27 G U -0.000009
0 27 G G -0.000043
0 27 G - -0.000054
0 27 - A 0.000040
0 27 - C -0.000044
0 27 - U -0.000004
0 27 - G -0.000021
0 27 - - 0.000021
0 28 A A -0.000046
0 28 A C 0.000037
0 28 A U 0.000037
0 28 A G 0.000226
0 28 A - -0.000044
0 28 C A -0.000016
0 28 C C -0.000013
0 28 C U 0.000015
0 28 C G -0.092171
0 28 C - -0.000031
0 28 U A -0.000006
0 28 U C 0.000045
0 28 U U 0.000037
0 28 U G 0.000912
0 28 U - 0.000037
0 28 G A -0.000044
0 28 G C -0.000044
0 28 G U -0.000045
0 28 G G -0.000070
0 28 G - 0.000037
0 28 - A -0.000044
0 28 - C 0.000037
0 28 - U 0.000037
0 28 - G 0.001345
0 28 - - -0.000030
0 29 A A 0.000092
0 29 A C 0.000039
0 29 A U -0.000015
0 29 A G -0.000048
0 29 A - 0.000051
0 29 C A -0.000825
0 29 C C -0.054969
0 29 C U 0.000043
0 29 C G 0.001303
0 29 C - 0.000788
0 29 U A 0.000954
0 29 U C 0.000045
0 29 U U 0.000024
0 29 U G 0.000010
0 29 U - -0.000045
0 29 G A -0.000085
0 29 G C 0.000016
0 29 G U -0.000015
0 29 G G 0.000019
0 29 G - 0.000038
0 29 - A -0.000036
0 29 - C -0.000046
0 29 - U 0.000036
0 29 - G -0.000000
0 29 - - 0.000020
0 30 A A 0.000030
0 30 A C 0.000129
0 30 A U -0.000040
0 30 A G -0.000022
0 30 A - -0.000009
0 30 C A -0.027912
0 30 C C -0.025733
0 30 C U 0.000995
0 30 C G 0.001911
0 30 C - 0.000682
0 30 U A 0.000027
0 30 U C 0.000939
0 30 U U 0.000025
0 30 U G -0.000012
0 30 U - -0.000000
0 30 G A 0.000048
0 30 G C -0.000073
0 30 G U 0.000009
0 30 G G -0.000007
0 30 G - 0.000030
0 30 - A 0.000481
0 30 - C 0.000046
0 30 - U -0.000024
0 30 - G -0.000040
0 30 - - -0.000022
0 31 A A 0.000187
0 31 A C -0.000004
0 31 A U -0.000004
0 31 A G 0.000004
0 31 A - 0.000013
0 31 C A -0.084097
0 31 C C 0.000590
0 31 C U 0.000052
0 31 C G -0.000003
0 31 C - 0.000035
0 31 U A 0.000976
0 31 U C 0.000008
0 31 U U -0.000013
0 31 U G 0.000014
0 31 U - 0.000008
0 31 G A -0.000014
0 31 G C -0.000004
0 31 G U -0.000004
0 31 G G -0.000004
0 31 G - 0.000032
0 31 - A 0.001338
0 31 - C 0.000014
0 31 - U -0.000004
0 31 - G -0.000040
0 31 - - 0.000029
0 32 A A 0.000005
0 32 A C 0.000010
0 32 A U 0.000008
0 32 A G -0.000026
0 32 A - -0.000009
0 32 C A -0.104233
0 32 C C 0.000002
0 32 C U 0.000005
0 32 C G 0.000047
0 32 C - 0.000012
0 32 U A 0.000929
0 32 U C -0.000037
0 32 U U 0.000009
0 32 U G -0.000009
0 32 U - -0.000010
0 32 G A -0.000057
0 32 G C -0.000026
0 32 G U -0.000026
0 32 G G 0.000028
0 32 G - -0.000007
0 32 - A 0.001359
0 32 - C -0.000009
0 32 - U -0.000026
0 32 - G -0.000008
0 32 - - 0.000006
0 33 A A 0.000052
0 33 A C 0.000052
0 33 A U -0.000032
0 33 A G 0.000153
0 33 A - 0.000052
0 33 C A 0.000033
0 33 C C 0.000022
0 33 C U 0.000016
0 33 C G -0.065101
0 33 C - 0.000004
0 33 U A -0.000014
0 33 U C 0.000052
0 33 U U -0.000015
0 33 U G 0.000916
0 33 U - -0.000032
0 33 G A -0.000033
0 33 G C 0.000052
0 33 G U -0.000032
0 33 G G -0.000087
0 33 G - -0.000031
0 33 - A -0.000015
0 33 - C -0.000032
0 33 - U 0.000052
0 33 - G 0.001318
0 33 - - -0.000030
0 34 A A 0.000246
0 34 A C 0.000040
0 34 A U 0.000040
0 34 A G -0.000023
0 34 A - 0.000040
0 34 C A -0.151190
0 34 C C 0.000013
0 34 C U 0.000821
0 34 C G -0.000020
0 34 C - -0.000014
0 34 U A 0.000981
0 34 U C -0.000041
0 34 U U -0.000043
0 34 U G -0.000041
0 34 U - 0.000040
0 34 G A -0.000073
0 34 G C -0.000042
0 34 G U -0.000043
0 34 G G 0.000040
0 34 G - 0.000055
0 34 - A 0.001507
0 34 - C -0.000021
0 34 - U 0.000040
0 34 - G 0.000040
0 34 - - -0.000041
0 35 A A -0.000032
0 35 A C 0.000264
0 35 A U 0.000049
0 35 A G -0.000033
0 35 A - 0.000049
0 35 C A 0.000002
0 35 C C -0.151185
0 35 C U 0.000012
0 35 C G 0.000053
0 35 C - -0.000013
0 35 U A -0.000033
0 35 U C 0.000971
0 35 U U -0.000034
0 35 U G -0.000020
0 35 U - 0.000049
0 35 G A 0.000049
0 35 G C -0.000052
0 35 G U -0.000035
0 35 G G 0.000049
0 35 G - -0.000033
0 35 - A -0.000032
0 35 - C 0.000516
0 35 - U 0.000049
0 35 - G 0.000049
0 35 - - 0.000049
0 36 A A 0.000048
0 36 A C -0.000033
0 36 A U -0.000002
0 36 A G 0.000036
0 36 A - 0.000004
0 36 C A 0.001004
0 36 C C -0.000012
0 36 C U -0.000992
0 36 C G -0.170092
0 36 C - 0.000165
0 36 U A -0.000021
0 36 U C -0.000011
0 36 U U 0.000041
0 36 U G 0.000918
0 36 U - -0.000015
0 36 G A -0.000013
0 36 G C 0.000051
0 36 G U 0.000008
0 36 G G -0.000008
0 36 G - 0.000011
0 36 - A -0.000031
0 36 - C -0.000015
0 36 - U -0.000005
0 36 - G 0.000692
0 36 - - 0.000051
0 37 A A -0.000001
0 37 A C -0.000044
0 37 A U 0.000041
0 37 A G 0.000107
0 37 A - 0.000036
0 37 C A -0.019680
0 37 C C 0.000686
0 37 C U 0.001022
0 37 C G -0.004627
0 37 C - 0.001006
0 37 U A 0.000958
0 37 U C -0.000043
0 37 U U -0.000044
0 37 U G -0.000022
0 37 U - -0.000023
0 37 G A 0.000045
0 37 G C 0.000023
0 37 G U 0.000048
0 37 G G -0.000072
0 37 G - 0.000031
0 37 - A -0.000025
0 37 - C 0.000034
0 37 - U 0.000035
0 37 - G 0.000006
0 37 - - 0.000023
0 38 A A -0.000045
0 38 A C -0.000038
0 38 A U 0.000006
0 38 A G 0.000029
0 38 A - 0.000042
0 38 C A 0.000223
0 38 C C -0.002729
0 38 C U -0.000269
0 38 C G -0.004747
0 38 C - 0.003250
0 38 U A 0.000042
0 38 U C 0.000942
0 38 U U -0.000002
0 38 U G -0.000038
0 38 U - -0.000032
0 38 G A -0.000039
0 38 G C -0.000002
0 38 G U 0.000010
0 38 G G 0.000032
0 38 G - -0.000004
0 38 - A -0.000049
0 38 - C 0.001126
0 38 - U 0.000047
0 38 - G -0.000006
0 38 - - -0.000008
0 39 A A -0.000005
0 39 A C 0.000043
0 39 A U 0.000032
0 39 A G -0.000007
0 39 A - -0.000018
0 39 C A 0.002457
0 39 C C -0.049117
0 39 C U 0.000237
0 39 C G -0.041627
0 39 C - 0.000466
0 39 U A -0.000035
0 39 U C 0.000956
0 39 U U 0.000011
0 39 U G 0.000036
0 39 U - 0.000001
0 39 G A -0.000001
0 39 G C -0.000042
0 39 G U 0.000004
0 39 G G 0.000016
0 39 G - 0.000015
0 39 - A 0.000000
0 39 - C -0.000037
0 39 - U 0.000007
0 39 - G 0.000506
0 39 - - 0.000014
0 40 A A -0.000027
0 40 A C 0.000041
0 40 A U 0.000044
0 40 A G -0.000047
0 40 A - 0.000036
0 40 C A -0.000030
0 40 C C -0.027305
0 40 C U 0.000693
0 40 C G 0.000333
0 40 C - 0.000442
0 40 U A -0.000019
0 40 U C 0.000917
0 40 U U -0.000002
0 40 U G 0.000014
0 40 U - -0.000034
0 40 G A -0.000030
0 40 G C -0.000014
0 40 G U 0.000000
0 40 G G 0.000042
0 40 G - 0.000011
0 40 - A 0.000037
0 40 - C 0.000167
0 40 - U 0.000032
0 40 - G 0.000034
0 40 - - -0.000042
1 1 A A 0.000021
1 1 C C -0.000664
1 1 U U 0.000030
1 1 G G -0.000049
1 1 - - 0.000025
1 2 A A 0.000004
1 2 A C 0.000041
1 2 A U -0.000044
1 2 A G 0.000034
1 2 A - 0.000008
1 2 C A 0.000800
1 2 C C -0.009332
1 2 C U -0.000017
1 2 C G -0.050454
1 2 C - -0.000015
1 2 U A -0.000010
1 2 U C -0.000042
1 2 U U 0.000008
1 2 U G -0.000004
1 2 U - 0.000007
1 2 G A -0.000010
1 2 G C -0.000041
1 2 G U -0.000010
1 2 G G -0.000036
1 2 G - -0.000010
1 2 - A 0.000021
1 2 - C -0.000028
1 2 - U -0.000010
1 2 - G -0.000042
1 2 - - -0.000010
1 3 A A 0.000038
1 3 A C 0.000053
1 3 A U 0.000020
1 3 A G 0.000019
1 3 A - 0.000020
1 3 C A -0.000026
1 3 C C 0.000016
1 3 C U 0.000033
1 3 C G -0.207290
1 3 C - -0.000015
1 3 U A 0.000041
1 3 U C 0.000020
1 3 U U 0.000020
1 3 U G -0.000051
1 3 U - 0.000020
1 3 G A 0.000020
1 3 G C 0.000041
1 3 G U 0.000020
1 3 G G 0.000036
1 3 G - 0.000020
1 3 - A -0.000041
1 3 - C 0.000020
1 3 - U 0.000020
1 3 - G 0.000031
1 3 - - 0.000020
1 4 A A -0.000025
1 4 A C 0.000001
1 4 A U 0.000001
1 4 A G 0.000001
1 4 A - 0.000036
1 4 C A -0.235008
1 4 C C -0.000018
1 4 C U 0.000944
1 4 C G -0.000005
1 4 C - 0.000004
1 4 U A -0.000040
1 4 U C 0.000001
1 4 U U 0.000022
1 4 U G 0.000001
1 4 U - 0.000001
1 4 G A 0.000006
1 4 G C 0.000020
1 4 G U 0.000022
1 4 G G 0.000001
1 4 G - 0.000001
1 4 - A -0.000023
1 4 - C 0.000001
1 4 - U 0.000022
1 4 - G 0.000001
1 4 - - 0.000001
1 5 A A 0.000057
1 5 A C 0.000050
1 5 A U 0.000039
1 5 A G 0.000058
1 5 A - 0.000029
1 5 C A -0.000027
1 5 C C -0.219042
1 5 C U 0.000903
1 5 C G 0.000019
1 5 C - -0.000012
1 5 U A 0.000039
1 5 U C -0.000040
1 5 U U 0.000058
1 5 U G 0.000039
1 5 U - -0.000041
1 5 G A 0.000057
1 5 G C -0.000029
1 5 G U 0.000039
1 5 G G 0.000058
1 5 G - 0.000039
1 5 - A 0.000057
1 5 - C -0.000031
1 5 - U 0.000039
1 5 - G 0.000039
1 5 - - 0.000039
1 6 A A 0.000005
1 6 A C -0.000026
1 6 A U -0.000026
1 6 A G 0.000032
1 6 A - -0.000026
1 6 C A -0.000019
1 6 C C 0.000994
1 6 C U 0.000037
1 6 C G -0.242144
1 6 C - 0.000444
1 6 U A -0.000039
1 6 U C -0.000005
1 6 U U 0.000011
1 6 U G -0.000018
1 6 U - -0.000026
1 6 G A -0.000010
1 6 G C -0.000026
1 6 G U -0.000006
1 6 G G 0.000057
1 6 G - -0.000006
1 6 - A -0.000026
1 6 - C -0.000026
1 6 - U -0.000026
1 6 - G 0.000055
1 6 - - -0.000026
1 7 A A 0.000046
1 7 A C 0.000004
1 7 A U -0.000009
1 7 A G -0.000009
1 7 A - -0.000009
1 7 C A -0.201806
1 7 C C -0.000037
1 7 C U 0.000005
1 7 C G -0.000039
1 7 C - -0.000005
1 7 U A -0.000014
1 7 U C 0.000010
1 7 U U 0.000012
1 7 U G -0.000009
1 7 U - 0.000010
1 7 G A 0.000029
1 7 G C -0.000009
1 7 G U 0.000012
1 7 G G -0.000009
1 7 G - 0.000011
1 7 - A -0.000008
1 7 - C -0.000009
1 7 - U 0.000012
1 7 - G 0.000029
1 7 - - -0.000009
1 8 A A -0.000003
1 8 A C -0.000012
1 8 A U -0.000012
1 8 A G -0.000047
1 8 A - -0.000008
1 8 C A 0.000264
1 8 C C 0.000358
1 8 C U 0.000683
1 8 C G -0.059774
1 8 C - -0.000293
1 8 U A -0.000012
1 8 U C -0.000029
1 8 U U 0.000022
1 8 U G -0.000043
1 8 U - -0.000036
1 8 G A -0.000013
1 8 G C -0.000013
1 8 G U -0.000029
1 8 G G 0.000015
1 8 G - 0.000017
1 8 - A -0.000012
1 8 - C -0.000029
1 8 - U -0.000029
1 8 - G 0.000016
1 8 - - 0.000003
1 9 A A -0.000046
1 9 A C 0.000041
1 9 A U 0.000044
1 9 A G -0.000030
1 9 A - 0.000044
1 9 C A -0.004524
1 9 C C -0.000394
1 9 C U 0.002574
1 9 C G -0.009586
1 9 C - 0.012377
1 9 U A 0.000044
1 9 U C -0.000050
1 9 U U -0.000034
1 9 U G 0.000014
1 9 U - 0.000041
1 9 G A -0.000004
1 9 G C -0.000022
1 9 G U -0.000043
1 9 G G 0.000025
1 9 G - -0.000031
1 9 - A -0.000045
1 9 - C 0.000049
1 9 - U 0.000045
1 9 - G 0.000040
1 9 - - 0.000044
1 10 A A 0.000008
1 10 A C -0.000019
1 10 A U 0.000040
1 10 A G -0.000017
1 10 A - 0.000044
1 10 C A 0.011598
1 10 C C -0.008673
1 10 C U -0.000345
1 10 C G -0.043431
1 10 C - 0.005695
1 10 U A -0.000048
1 10 U C -0.000040
1 10 U U -0.000049
1 10 U G -0.000021
1 10 U - 0.000015
1 10 G A -0.000044
1 10 G C -0.000045
1 10 G U 0.000023
1 10 G G -0.000010
1 10 G - 0.000013
1 10 - A 0.000009
1 10 - C -0.000017
1 10 - U 0.000015
1 10 - G 0.000046
1 10 - - 0.000028
1 11 A A -0.000035
1 11 A C 0.000048
1 11 A U 0.000041
1 11 A G 0.000022
1 11 A - -0.000033
1 11 C A -0.000045
1 11 C C -0.000009
1 11 C U -0.000049
1 11 C G -0.110345
1 11 C - 0.001608
1 11 U A -0.000044
1 11 U C -0.000019
1 11 U U 0.000048
1 11 U G -0.000035
1 11 U - 0.000048
1 11 G A 0.000048
1 11 G C -0.000035
1 11 G U -0.000002
1 11 G G -0.000037
1 11 G - -0.000019
1 11 - A -0.000031
1 11 - C -0.000035
1 11 - U -0.000031
1 11 - G -0.000035
1 11 - - -0.000009
1 12 A A 0.000048
1 12 A C -0.000025
1 12 A U 0.000018
1 12 A G -0.000043
1 12 A - 0.000044
1 12 C A -0.005780
1 12 C C -0.003307
1 12 C U -0.008536
1 12 C G 0.004345
1 12 C - 0.018072
1 12 U A -0.000024
1 12 U C 0.000029
1 12 U U 0.000047
1 12 U G 0.000037
1 12 U - 0.000033
1 12 G A 0.000001
1 12 G C 0.000004
1 12 G U -0.000040
1 12 G G 0.000036
1 12 G - -0.000002
1 12 - A -0.000038
1 12 - C 0.000042
1 12 - U -0.000010
1 12 - G 0.000026
1 12 - - 0.000026
1 13 A A 0.000032
1 13 A C 0.000050
1 13 A U -0.000043
1 13 A G 0.000001
1 13 A - -0.000050
1 13 C A 0.001127
1 13 C C 0.002626
1 13 C U -0.004663
1 13 C G -0.012067
1 13 C - 0.005435
1 13 U A -0.000036
1 13 U C 0.000039
1 13 U U 0.000039
1 13 U G 0.000034
1 13 U - 0.000039
1 13 G A 0.000032
1 13 G C -0.000036
1 13 G U -0.000048
1 13 G G -0.000001
1 13 G - 0.000012
1 13 - A 0.000039
1 13 - C 0.000048
1 13 - U 0.000001
1 13 - G -0.000002
1 13 - - 0.000039
1 14 A A 0.000022
1 14 A C -0.000002
1 14 A U 0.000031
1 14 A G -0.000014
1 14 A - -0.000033
1 14 C A 0.002318
1 14 C C -0.114520
1 14 C U -0.004389
1 14 C G 0.003718
1 14 C - 0.001961
1 14 U A -0.000033
1 14 U C 0.000039
1 14 U U 0.000003
1 14 U G -0.000003
1 14 U - -0.000033
1 14 G A -0.000015
1 14 G C 0.000031
1 14 G U 0.000003
1 14 G G -0.000016
1 14 G - -0.000013
1 14 - A 0.000003
1 14 - C -0.000032
1 14 - U -0.000000
1 14 - G -0.000014
1 14 - - -0.000014
1 15 A A -0.000044
1 15 A C -0.000037
1 15 A U 0.000013
1 15 A G 0.000004
1 15 A - 0.000019
1 15 C A -0.005247
1 15 C C -0.037666
1 15 C U 0.000499
1 15 C G 0.000042
1 15 C - 0.000151
1 15 U A -0.000028
1 15 U C 0.000018
1 15 U U -0.000014
1 15 U G -0.000014
1 15 U - 0.000005
1 15 G A -0.000046
1 15 G C 0.000033
1 15 G U -0.000014
1 15 G G -0.000014
1 15 G - -0.000014
1 15 - A 0.000035
1 15 - C 0.000026
1 15 - U -0.000014
1 15 - G 0.000005
1 15 - - -0.000014
1 16 A A -0.000007
1 16 A C -0.000007
1 16 A U 0.000027
1 16 A G -0.000025
1 16 A - -0.000007
1 16 C A 0.000025
1 16 C C -0.000003
1 16 C U 0.000698
1 16 C G -0.228215
1 16 C - 0.000018
1 16 U A -0.000007
1 16 U C -0.000007
1 16 U U 0.000011
1 16 U G -0.000047
1 16 U - -0.000007
1 16 G A -0.000007
1 16 G C 0.000051
1 16 G U -0.000007
1 16 G G -0.000023
1 16 G - -0.000007
1 16 - A -0.000007
1 16 - C -0.000007
1 16 - U -0.000007
1 16 - G -0.000025
1 16 - - -0.000007
1 17 A A 0.000024
1 17 A C 0.000036
1 17 A U -0.000010
1 17 A G 0.000024
1 17 A - 0.000024
1 17 C A 0.000024
1 17 C C 0.000031
1 17 C U -0.217113
1 17 C G -0.000020
1 17 C - -0.000013
1 17 U A 0.000024
1 17 U C 0.000024
1 17 U U -0.000026
1 17 U G 0.000044
1 17 U - 0.000024
1 17 G A 0.000024
1 17 G C 0.000042
1 17 G U 0.000014
1 17 G G -0.000038
1 17 G - 0.000024
1 17 - A -0.000040
1 17 - C 0.000024
1 17 - U 0.000051
1 17 - G 0.000024
1 17 - - 0.000024
1 18 A A 0.000055
1 18 A C 0.000022
1 18 A U 0.000037
1 18 A G 0.000043
1 18 A - 0.000022
1 18 C A -0.280524
1 18 C C -0.000034
1 18 C U -0.000007
1 18 C G 0.000058
1 18 C - 0.000050
1 18 U A 0.000006
1 18 U C 0.000022
1 18 U U 0.000022
1 18 U G 0.000045
1 18 U - 0.000022
1 18 G A 0.000026
1 18 G C 0.000022
1 18 G U 0.000022
1 18 G G 0.000041
1 18 G - 0.000022
1 18 - A 0.000020
1 18 - C 0.000022
1 18 - U 0.000022
1 18 - G 0.000042
1 18 - - 0.000022
1 19 A A 0.000012
1 19 A C 0.000051
1 19 A U 0.000012
1 19 A G 0.000012
1 19 A - 0.000033
1 19 C A 0.000407
1 19 C C -0.249902
1 19 C U 0.000996
1 19 C G -0.000010
1 19 C - 0.000297
1 19 U A 0.000012
1 19 U C -0.000006
1 19 U U 0.000012
1 19 U G 0.000033
1 19 U - 0.000012
1 19 G A 0.000012
1 19 G C 0.000030
1 19 G U 0.000012
1 19 G G 0.000012
1 19 G - 0.000012
1 19 - A 0.000012
1 19 - C 0.000054
1 19 - U 0.000033
1 19 - G 0.000012
1 19 - - 0.000033
1 20 A A 0.000050
1 20 A C 0.000055
1 20 A U 0.000050
1 20 A G 0.000050
1 20 A - -0.000036
1 20 C A 0.001768
1 20 C C -0.245011
1 20 C U 0.000027
1 20 C G -0.000002
1 20 C - 0.000042
1 20 U A 0.000050
1 20 U C 0.000021
1 20 U U 0.000050
1 20 U G -0.000030
1 20 U - 0.000050
1 20 G A 0.000050
1 20 G C 0.000032
1 20 G U 0.000050
1 20 G G 0.000050
1 20 G - -0.000030
1 20 - A -0.000031
1 20 - C -0.000030
1 20 - U -0.000008
1 20 - G 0.000050
1 20 - - 0.000050
1 21 A A 0.000028
1 21 A C -0.000033
1 21 A U 0.000045
1 21 A G 0.000021
1 21 A - 0.000028
1 21 C A 0.000868
1 21 C C -0.049031
1 21 C U -0.000038
1 21 C G -0.015946
1 21 C - 0.001616
1 21 U A 0.000028
1 21 U C 0.000006
1 21 U U 0.000028
1 21 U G 0.000028
1 21 U - 0.000010
1 21 G A 0.000025
1 21 G C 0.000022
1 21 G U 0.000010
1 21 G G -0.000031
1 21 G - 0.000026
1 21 - A 0.000010
1 21 - C 0.000034
1 21 - U 0.000040
1 21 - G 0.000027
1 21 - - 0.000046
1 22 A A -0.000009
1 22 A C -0.000002
1 22 A U -0.000024
1 22 A G -0.000027
1 22 A - -0.000005
1 22 C A 0.000423
1 22 C C 0.000006
1 22 C U 0.000056
1 22 C G -0.412625
1 22 C - -0.000011
1 22 U A -0.000003
1 22 U C -0.000024
1 22 U U -0.000024
1 22 U G -0.000020
1 22 U - -0.000024
1 22 G A -0.000024
1 22 G C -0.000001
1 22 G U -0.000004
1 22 G G 0.000021
1 22 G - 0.000042
1 22 - A 0.000019
1 22 - C 0.000026
1 22 - U 0.000021
1 22 - G 0.000029
1 22 - - 0.000015
1 23 A A -0.000022
1 23 A C 0.000014
1 23 A U 0.000034
1 23 A G -0.000031
1 23 A - 0.000034
1 23 C A 0.000015
1 23 C C -0.000053
1 23 C U -0.000008
1 23 C G -0.123183
1 23 C - 0.000989
1 23 U A 0.000034
1 23 U C 0.000034
1 23 U U 0.000054
1 23 U G 0.000021
1 23 U - -0.000011
1 23 G A 0.000034
1 23 G C 0.000053
1 23 G U -0.000024
1 23 G G -0.000032
1 23 G - 0.000034
1 23 - A 0.000034
1 23 - C -0.000044
1 23 - U 0.000034
1 23 - G -0.000043
1 23 - - 0.000034
1 24 A A 0.000020
1 24 A C 0.000015
1 24 A U 0.000045
1 24 A G 0.000040
1 24 A - -0.000001
1 24 C A -0.008203
1 24 C C -0.001941
1 24 C U -0.013043
1 24 C G 0.015682
1 24 C - 0.026645
1 24 U A -0.000040
1 24 U C -0.000018
1 24 U U 0.000010
1 24 U G 0.000012
1 24 U - -0.000001
1 24 G A 0.000016
1 24 G C 0.000027
1 24 G U 0.000003
1 24 G G 0.000027
1 24 G - 0.000009
1 24 - A -0.000040
1 24 - C 0.000042
1 24 - U -0.000030
1 24 - G 0.000014
1 24 - - -0.000010
1 25 A A 0.000033
1 25 A C -0.000041
1 25 A U 0.000001
1 25 A G -0.000009
1 25 A - -0.000019
1 25 C A 0.000348
1 25 C C -0.017567
1 25 C U 0.001059
1 25 C G -0.000796
1 25 C - 0.055609
1 25 U A -0.000010
1 25 U C -0.000009
1 25 U U 0.000001
1 25 U G -0.000021
1 25 U - 0.000047
1 25 G A 0.000030
1 25 G C -0.000051
1 25 G U -0.000003
1 25 G G 0.000042
1 25 G - -0.000035
1 25 - A -0.000019
1 25 - C 0.000002
1 25 - U 0.000045
1 25 - G 0.000045
1 25 - - 0.000047
1 26 A A -0.000037
1 26 A C -0.000032
1 26 A U 0.000024
1 26 A G -0.000029
1 26 A - 0.000030
1 26 C A -0.009795
1 26 C C -0.014220
1 26 C U 0.001329
1 26 C G -0.000229
1 26 C - 0.030455
1 26 U A 0.000023
1 26 U C -0.000037
1 26 U U 0.000040
1 26 U G -0.000045
1 26 U - 0.000035
1 26 G A -0.000044
1 26 G C 0.000008
1 26 G U -0.000006
1 26 G G 0.000040
1 26 G - 0.000002
1 26 - A 0.000020
1 26 - C -0.000000
1 26 - U 0.000028
1 26 - G 0.000044
1 26 - - -0.000050
1 27 A A -0.000028
1 27 A C 0.000007
1 27 A U -0.000016
1 27 A G -0.000031
1 27 A - -0.000015
1 27 C A -0.000045
1 27 C C -0.044157
1 27 C U 0.013913
1 27 C G -0.000152