# NB_STEPS 3000
# UP_FREQ 1000
# TEMP 1.000000
# LAMBDA 0.050000
# ID_THRES 1.000000
# ALPHA 1.219078
0 0 A A -0.006650
0 0 C C 0.004776
0 0 U U -0.001835
0 0 G G -0.008904
0 0 - - 0.050875
0 1 A A -0.012046
0 1 A C -0.000018
0 1 A U -0.001916
0 1 A G -0.000133
0 1 A - 0.000263
0 1 C A 0.005141
0 1 C C 0.000012
0 1 C U -0.000044
0 1 C G 0.000424
0 1 C - -0.000011
0 1 U A -0.000536
0 1 U C -0.000060
0 1 U U -0.001375
0 1 U G 0.001087
0 1 U - 0.000007
0 1 G A -0.000728
0 1 G C -0.000064
0 1 G U 0.000882
0 1 G G 0.001465
0 1 G - 0.000019
0 1 - A 0.000021
0 1 - C 0.001629
0 1 - U 0.000957
0 1 - G 0.000025
0 1 - - 0.000035
0 2 A A -0.000501
0 2 A C 0.000151
0 2 A U -0.018471
0 2 A G 0.001584
0 2 A - -0.000003
0 2 C A 0.001092
0 2 C C -0.000036
0 2 C U 0.000180
0 2 C G 0.000578
0 2 C - 0.000036
0 2 U A -0.019143
0 2 U C 0.000137
0 2 U U 0.002004
0 2 U G -0.000312
0 2 U - 0.000024
0 2 G A -0.000027
0 2 G C -0.000018
0 2 G U -0.000129
0 2 G G 0.001538
0 2 G - -0.000012
0 2 - A 0.000002
0 2 - C 0.000805
0 2 - U 0.000625
0 2 - G 0.000974
0 2 - - 0.000020
0 3 A A -0.001366
0 3 A C -0.000041
0 3 A U -0.061808
0 3 A G 0.002905
0 3 A - 0.000017
0 3 C A 0.000882
0 3 C C 0.001440
0 3 C U 0.000000
0 3 C G 0.000819
0 3 C - 0.000003
0 3 U A -0.000138
0 3 U C 0.003570
0 3 U U -0.002711
0 3 U G -0.001323
0 3 U - -0.000026
0 3 G A 0.000997
0 3 G C 0.000539
0 3 G U -0.000061
0 3 G G 0.000004
0 3 G - -0.000031
0 3 - A 0.000634
0 3 - C 0.000733
0 3 - U 0.000041
0 3 - G 0.000962
0 3 - - -0.000037
0 4 A A -0.000468
0 4 A C 0.000808
0 4 A U 0.000024
0 4 A G -0.004603
0 4 A - -0.000049
0 4 C A 0.000310
0 4 C C 0.000971
0 4 C U -0.000002
0 4 C G 0.002542
0 4 C - 0.000014
0 4 U A -0.000395
0 4 U C -0.000003
0 4 U U -0.000031
0 4 U G -0.000433
0 4 U - -0.000003
0 4 G A -0.000043
0 4 G C -0.000061
0 4 G U -0.000013
0 4 G G 0.000591
0 4 G - 0.000761
0 4 - A 0.000049
0 4 - C 0.000909
0 4 - U -0.000030
0 4 - G 0.001611
0 4 - - -0.000026
0 5 A A 0.000011
0 5 A C 0.000013
0 5 A U -0.000026
0 5 A G -0.082607
0 5 A - 0.000101
0 5 C A -0.000039
0 5 C C -0.000009
0 5 C U -0.000051
0 5 C G 0.005383
0 5 C - 0.000388
0 5 U A -0.000011
0 5 U C 0.000294
0 5 U U -0.000046
0 5 U G -0.001030
0 5 U - -0.000043
0 5 G A 0.000036
0 5 G C -0.000033
0 5 G U -0.000042
0 5 G G -0.006150
0 5 G - 0.000049
0 5 - A -0.000010
0 5 - C -0.000021
0 5 - U -0.000021
0 5 - G 0.054722
0 5 - - 0.000008
0 6 A A -0.032601
0 6 A C 0.000194
0 6 A U 0.000004
0 6 A G -0.000032
0 6 A - 0.000025
0 6 C A 0.001533
0 6 C C -0.000038
0 6 C U 0.000930
0 6 C G 0.000315
0 6 C - -0.000003
0 6 U A -0.003776
0 6 U C -0.000054
0 6 U U 0.001198
0 6 U G 0.001075
0 6 U - -0.000028
0 6 G A -0.000647
0 6 G C 0.000570
0 6 G U 0.001026
0 6 G G -0.000049
0 6 G - -0.000052
0 6 - A 0.002580
0 6 - C 0.000024
0 6 - U 0.000038
0 6 - G -0.000023
0 6 - - -0.000040
0 7 A A -0.128924
0 7 A C 0.000023
0 7 A U -0.000018
0 7 A G -0.000282
0 7 A - -0.000047
0 7 C A 0.001604
0 7 C C 0.000028
0 7 C U 0.000029
0 7 C G 0.001315
0 7 C - 0.001346
0 7 U A -0.000429
0 7 U C 0.000040
0 7 U U -0.000013
0 7 U G -0.000511
0 7 U - 0.000040
0 7 G A -0.000217
0 7 G C 0.001012
0 7 G U -0.000035
0 7 G G 0.000457
0 7 G - -0.000026
0 7 - A 0.001620
0 7 - C 0.000044
0 7 - U -0.000037
0 7 - G 0.000929
0 7 - - 0.000009
0 8 A A -0.001372
0 8 A C 0.000018
0 8 A U -0.000026
0 8 A G -0.001322
0 8 A - -0.000006
0 8 C A 0.000854
0 8 C C -0.000025
0 8 C U 0.000044
0 8 C G 0.002839
0 8 C - 0.000005
0 8 U A -0.002207
0 8 U C 0.000473
0 8 U U 0.000341
0 8 U G -0.002264
0 8 U - -0.000046
0 8 G A 0.001013
0 8 G C 0.000031
0 8 G U -0.000023
0 8 G G -0.013323
0 8 G - 0.000034
0 8 - A -0.000005
0 8 - C -0.000020
0 8 - U 0.000013
0 8 - G 0.002603
0 8 - - -0.000044
0 9 A A -0.000006
0 9 A C -0.003935
0 9 A U 0.000004
0 9 A G 0.000802
0 9 A - -0.000016
0 9 C A -0.000046
0 9 C C 0.004391
0 9 C U 0.000010
0 9 C G 0.000016
0 9 C - -0.000035
0 9 U A -0.000047
0 9 U C -0.002431
0 9 U U -0.000017
0 9 U G 0.000399
0 9 U - -0.000036
0 9 G A 0.000020
0 9 G C -0.007588
0 9 G U -0.000015
0 9 G G 0.000038
0 9 G - -0.000008
0 9 - A -0.000014
0 9 - C 0.013525
0 9 - U 0.000046
0 9 - G -0.000001
0 9 - - 0.000951
0 10 A A 0.000720
0 10 A C 0.000199
0 10 A U -0.025740
0 10 A G -0.001437
0 10 A - 0.000004
0 10 C A 0.000071
0 10 C C -0.000029
0 10 C U 0.000186
0 10 C G 0.002547
0 10 C - -0.000048
0 10 U A -0.000329
0 10 U C 0.000301
0 10 U U -0.000798
0 10 U G -0.000538
0 10 U - -0.000033
0 10 G A 0.000982
0 10 G C 0.000035
0 10 G U -0.000066
0 10 G G 0.000226
0 10 G - -0.000029
0 10 - A 0.000040
0 10 - C -0.000016
0 10 - U 0.002602
0 10 - G 0.000048
0 10 - - -0.000049
0 11 A A -0.005760
0 11 A C 0.000009
0 11 A U -0.000555
0 11 A G -0.000240
0 11 A - 0.000232
0 11 C A 0.001955
0 11 C C 0.000003
0 11 C U 0.000088
0 11 C G 0.000841
0 11 C - 0.000032
0 11 U A -0.001675
0 11 U C -0.000023
0 11 U U -0.001359
0 11 U G 0.001602
0 11 U - 0.000259
0 11 G A -0.004387
0 11 G C 0.000596
0 11 G U -0.000027
0 11 G G -0.000011
0 11 G - 0.000850
0 11 - A 0.001615
0 11 - C 0.000025
0 11 - U 0.000039
0 11 - G -0.000004
0 11 - - 0.000744
0 12 A A -0.000089
0 12 A C 0.000821
0 12 A U -0.068734
0 12 A G -0.000028
0 12 A - -0.000042
0 12 C A 0.000300
0 12 C C 0.000220
0 12 C U 0.004891
0 12 C G 0.000109
0 12 C - -0.000025
0 12 U A -0.000003
0 12 U C -0.000019
0 12 U U -0.000020
0 12 U G 0.000003
0 12 U - -0.000043
0 12 G A 0.000014
0 12 G C 0.000791
0 12 G U 0.000137
0 12 G G -0.000016
0 12 G - -0.000047
0 12 - A -0.000016
0 12 - C 0.000649
0 12 - U 0.002939
0 12 - G -0.000031
0 12 - - -0.000012
0 13 A A -0.000040
0 13 A C 0.000015
0 13 A U 0.000012
0 13 A G -0.018463
0 13 A - -0.000018
0 13 C A 0.000032
0 13 C C -0.000041
0 13 C U 0.000044
0 13 C G 0.004114
0 13 C - -0.000051
0 13 U A -0.000019
0 13 U C 0.000012
0 13 U U -0.000020
0 13 U G -0.012765
0 13 U - -0.000030
0 13 G A -0.000046
0 13 G C 0.000046
0 13 G U -0.000012
0 13 G G -0.008030
0 13 G - -0.000034
0 13 - A -0.000017
0 13 - C 0.000018
0 13 - U 0.000017
0 13 - G 0.075429
0 13 - - -0.000002
0 14 A A -0.010834
0 14 A C -0.000013
0 14 A U -0.000046
0 14 A G -0.000048
0 14 A - 0.000026
0 14 C A 0.005990
0 14 C C 0.000017
0 14 C U -0.000009
0 14 C G 0.000035
0 14 C - 0.000021
0 14 U A -0.023459
0 14 U C 0.000004
0 14 U U 0.000033
0 14 U G -0.000021
0 14 U - 0.000046
0 14 G A -0.008269
0 14 G C -0.000025
0 14 G U -0.000020
0 14 G G -0.000002
0 14 G - 0.000037
0 14 - A 0.065135
0 14 - C 0.000035
0 14 - U -0.000050
0 14 - G -0.000034
0 14 - - 0.000024
0 15 A A -0.011595
0 15 A C 0.000135
0 15 A U -0.000605
0 15 A G 0.000020
0 15 A - -0.000023
0 15 C A 0.000256
0 15 C C 0.000098
0 15 C U 0.002193
0 15 C G -0.000052
0 15 C - 0.000012
0 15 U A -0.000300
0 15 U C -0.000025
0 15 U U -0.003081
0 15 U G 0.000866
0 15 U - 0.000672
0 15 G A -0.000096
0 15 G C 0.000012
0 15 G U 0.000256
0 15 G G -0.000060
0 15 G - 0.000835
0 15 - A 0.001638
0 15 - C -0.000005
0 15 - U -0.000010
0 15 - G 0.001000
0 15 - - -0.000047
0 16 A A 0.000154
0 16 A C -0.002008
0 16 A U -0.000286
0 16 A G 0.001299
0 16 A - 0.000359
0 16 C A 0.000607
0 16 C C 0.002305
0 16 C U -0.000042
0 16 C G 0.000523
0 16 C - 0.000036
0 16 U A -0.000371
0 16 U C -0.000230
0 16 U U -0.000089
0 16 U G -0.003884
0 16 U - -0.000002
0 16 G A -0.000052
0 16 G C -0.000130
0 16 G U 0.000529
0 16 G G 0.000437
0 16 G - 0.000004
0 16 - A 0.000003
0 16 - C 0.000965
0 16 - U 0.000046
0 16 - G 0.001615
0 16 - - 0.000015
0 17 A A -0.022984
0 17 A C -0.001008
0 17 A U -0.000622
0 17 A G 0.000088
0 17 A - -0.000040
0 17 C A 0.000376
0 17 C C 0.000807
0 17 C U -0.000017
0 17 C G 0.001173
0 17 C - 0.000002
0 17 U A -0.000076
0 17 U C -0.000622
0 17 U U -0.090833
0 17 U G -0.000054
0 17 U - 0.000047
0 17 G A 0.000025
0 17 G C 0.000215
0 17 G U 0.000289
0 17 G G -0.000001
0 17 G - 0.000013
0 17 - A 0.000034
0 17 - C 0.002701
0 17 - U -0.000012
0 17 - G -0.000008
0 17 - - 0.000015
0 18 A A -0.010346
0 18 A C -0.000160
0 18 A U 0.000694
0 18 A G -0.000977
0 18 A - 0.000026
0 18 C A 0.000833
0 18 C C 0.001053
0 18 C U 0.000341
0 18 C G 0.000415
0 18 C - 0.000029
0 18 U A -0.000619
0 18 U C 0.000295
0 18 U U 0.000030
0 18 U G -0.001804
0 18 U - -0.000048
0 18 G A 0.000817
0 18 G C 0.000698
0 18 G U 0.000001
0 18 G G -0.000272
0 18 G - -0.000041
0 18 - A 0.000770
0 18 - C 0.000589
0 18 - U 0.000011
0 18 - G 0.000938
0 18 - - -0.000000
0 19 A A -0.000033
0 19 A C -0.000080
0 19 A U -0.002856
0 19 A G -0.000050
0 19 A - 0.000003
0 19 C A 0.000031
0 19 C C 0.002033
0 19 C U 0.001228
0 19 C G 0.000035
0 19 C - -0.000014
0 19 U A -0.000073
0 19 U C -0.000564
0 19 U U -0.000585
0 19 U G 0.000021
0 19 U - 0.000694
0 19 G A 0.000029
0 19 G C -0.000678
0 19 G U -0.000033
0 19 G G 0.000023
0 19 G - -0.000013
0 19 - A 0.000049
0 19 - C 0.001567
0 19 - U 0.000714
0 19 - G -0.000018
0 19 - - -0.000046
0 20 A A -0.000818
0 20 A C 0.000731
0 20 A U -0.027193
0 20 A G -0.000434
0 20 A - 0.000051
0 20 C A 0.000560
0 20 C C 0.000761
0 20 C U 0.001638
0 20 C G 0.000010
0 20 C - 0.000802
0 20 U A -0.198172
0 20 U C 0.001679
0 20 U U -0.000008
0 20 U G 0.000086
0 20 U - 0.000006
0 20 G A -0.000025
0 20 G C 0.001346
0 20 G U 0.000005
0 20 G G 0.000433
0 20 G - 0.000000
0 20 - A -0.000030
0 20 - C 0.000652
0 20 - U 0.000045
0 20 - G 0.001779
0 20 - - -0.000041
0 21 A A -0.000521
0 21 A C -0.000112
0 21 A U -0.001578
0 21 A G -0.000430
0 21 A - -0.000037
0 21 C A 0.000677
0 21 C C 0.000143
0 21 C U -0.000049
0 21 C G 0.004407
0 21 C - -0.000004
0 21 U A -0.001142
0 21 U C 0.001360
0 21 U U -0.000352
0 21 U G -0.000605
0 21 U - -0.000005
0 21 G A -0.000022
0 21 G C 0.001358
0 21 G U -0.000257
0 21 G G 0.000845
0 21 G - 0.000036
0 21 - A -0.000002
0 21 - C 0.001730
0 21 - U -0.000011
0 21 - G -0.000007
0 21 - - 0.000655
0 22 A A -0.000028
0 22 A C 0.000066
0 22 A U -0.007200
0 22 A G -0.000038
0 22 A - -0.000030
0 22 C A -0.000022
0 22 C C 0.000060
0 22 C U 0.002450
0 22 C G 0.000588
0 22 C - -0.000007
0 22 U A -0.000053
0 22 U C -0.000855
0 22 U U -0.000148
0 22 U G 0.000072
0 22 U - 0.000000
0 22 G A -0.000046
0 22 G C -0.000272
0 22 G U 0.001190
0 22 G G 0.000816
0 22 G - 0.000018
0 22 - A -0.000022
0 22 - C 0.001582
0 22 - U 0.000031
0 22 - G 0.000945
0 22 - - 0.000039
0 23 A A -0.000055
0 23 A C -0.000389
0 23 A U -0.016636
0 23 A G -0.000009
0 23 A - -0.000032
0 23 C A 0.000902
0 23 C C 0.001366
0 23 C U 0.001136
0 23 C G -0.000025
0 23 C - -0.000031
0 23 U A -0.000054
0 23 U C -0.000385
0 23 U U -0.000393
0 23 U G 0.000010
0 23 U - 0.000040
0 23 G A 0.000019
0 23 G C 0.000827
0 23 G U 0.000013
0 23 G G -0.000048
0 23 G - 0.000037
0 23 - A 0.000024
0 23 - C 0.000662
0 23 - U 0.000725
0 23 - G 0.000970
0 23 - - -0.000032
0 24 A A -0.000050
0 24 A C -0.000753
0 24 A U -0.006642
0 24 A G 0.000008
0 24 A - 0.002493
0 24 C A 0.000913
0 24 C C -0.000010
0 24 C U 0.001941
0 24 C G -0.000005
0 24 C - -0.000049
0 24 U A 0.000006
0 24 U C -0.000452
0 24 U U -0.002646
0 24 U G -0.000011
0 24 U - -0.000032
0 24 G A -0.000056
0 24 G C -0.000073
0 24 G U 0.000632
0 24 G G 0.001018
0 24 G - -0.000013
0 24 - A 0.000006
0 24 - C 0.000031
0 24 - U 0.005031
0 24 - G 0.000043
0 24 - - 0.000035
0 25 A A -0.000046
0 25 A C 0.000910
0 25 A U -0.003075
0 25 A G -0.004235
0 25 A - 0.000653
0 25 C A 0.002744
0 25 C C 0.001099
0 25 C U -0.000056
0 25 C G -0.000188
0 25 C - -0.000041
0 25 U A -0.000035
0 25 U C -0.000057
0 25 U U 0.000328
0 25 U G -0.002690
0 25 U - -0.000037
0 25 G A 0.000506
0 25 G C 0.000722
0 25 G U 0.000911
0 25 G G -0.000507
0 25 G - -0.000046
0 25 - A 0.000010
0 25 - C 0.000011
0 25 - U 0.000981
0 25 - G 0.001568
0 25 - - -0.000028
0 26 A A -0.000052
0 26 A C -0.000069
0 26 A U -0.004083
0 26 A G 0.001206
0 26 A - -0.000129
0 26 C A -0.000039
0 26 C C 0.000377
0 26 C U 0.001585
0 26 C G 0.000017
0 26 C - 0.001325
0 26 U A -0.000032
0 26 U C 0.000150
0 26 U U -0.024474
0 26 U G -0.000008
0 26 U - 0.000489
0 26 G A -0.000016
0 26 G C 0.000930
0 26 G U -0.000223
0 26 G G 0.000774
0 26 G - 0.000021
0 26 - A 0.000044
0 26 - C 0.000006
0 26 - U 0.001587
0 26 - G 0.000725
0 26 - - 0.000021
0 27 A A -0.058956
0 27 A C -0.000018
0 27 A U 0.000032
0 27 A G 0.000042
0 27 A - 0.000011
0 27 C A 0.006127
0 27 C C 0.000023
0 27 C U -0.000026
0 27 C G 0.000011
0 27 C - 0.000928
0 27 U A -0.000807
0 27 U C 0.000007
0 27 U U -0.000047
0 27 U G 0.000007
0 27 U - 0.000014
0 27 G A -0.001278
0 27 G C 0.000031
0 27 G U 0.000016
0 27 G G 0.000217
0 27 G - -0.000009
0 27 - A 0.030603
0 27 - C 0.000045
0 27 - U 0.000008
0 27 - G 0.000022
0 27 - - -0.000010
0 28 A A -0.000012
0 28 A C 0.000007
0 28 A U -0.055646
0 28 A G -0.000053
0 28 A - -0.000049
0 28 C A 0.000009
0 28 C C -0.000025
0 28 C U 0.002745
0 28 C G 0.000028
0 28 C - 0.000282
0 28 U A -0.000268
0 28 U C -0.000074
0 28 U U -0.000826
0 28 U G 0.000290
0 28 U - -0.000015
0 28 G A -0.000043
0 28 G C 0.000009
0 28 G U 0.000627
0 28 G G 0.000779
0 28 G - 0.000017
0 28 - A 0.000017
0 28 - C 0.000050
0 28 - U 0.000801
0 28 - G 0.000945
0 28 - - 0.000670
0 29 A A -0.000667
0 29 A C 0.001714
0 29 A U -0.000457
0 29 A G -0.001317
0 29 A - 0.000024
0 29 C A -0.000056
0 29 C C 0.000807
0 29 C U 0.000260
0 29 C G 0.001113
0 29 C - 0.000005
0 29 U A -0.000043
0 29 U C -0.000591
0 29 U U -0.003863
0 29 U G 0.002339
0 29 U - -0.000049
0 29 G A -0.000007
0 29 G C 0.000566
0 29 G U -0.000385
0 29 G G 0.001533
0 29 G - -0.000019
0 29 - A 0.000045
0 29 - C 0.000006
0 29 - U 0.001623
0 29 - G 0.000980
0 29 - - 0.000013
0 30 A A 0.000042
0 30 A C -0.000004
0 30 A U -0.004212
0 30 A G -0.000015
0 30 A - 0.000586
0 30 C A -0.000007
0 30 C C -0.000049
0 30 C U 0.007399
0 30 C G 0.000068
0 30 C - 0.000033
0 30 U A 0.000500
0 30 U C 0.000001
0 30 U U -0.062482
0 30 U G -0.000021
0 30 U - 0.000558
0 30 G A -0.000026
0 30 G C -0.000060
0 30 G U 0.000271
0 30 G G 0.000845
0 30 G - 0.000023
0 30 - A 0.000050
0 30 - C 0.000022
0 30 - U 0.020025
0 30 - G -0.000029
0 30 - - -0.000028
0 31 A A -0.000044
0 31 A C -0.000018
0 31 A U 0.000024
0 31 A G -0.004517
0 31 A - -0.000032
0 31 C A 0.000015
0 31 C C -0.000050
0 31 C U 0.000045
0 31 C G 0.005301
0 31 C - -0.000032
0 31 U A 0.000527
0 31 U C 0.000015
0 31 U U 0.000038
0 31 U G -0.015497
0 31 U - -0.000035
0 31 G A -0.000040
0 31 G C -0.000018
0 31 G U 0.000014
0 31 G G -0.004059
0 31 G - -0.000041
0 31 - A 0.000045
0 31 - C -0.000042
0 31 - U -0.000049
0 31 - G 0.076761
0 31 - - 0.000745
0 32 A A 0.000032
0 32 A C 0.000012
0 32 A U 0.000015
0 32 A G -0.004178
0 32 A - -0.000021
0 32 C A -0.000003
0 32 C C -0.000021
0 32 C U 0.000015
0 32 C G 0.003823
0 32 C - 0.000008
0 32 U A 0.000007
0 32 U C -0.000016
0 32 U U -0.000009
0 32 U G -0.011534
0 32 U - -0.000048
0 32 G A -0.000046
0 32 G C -0.000001
0 32 G U -0.000050
0 32 G G -0.006662
0 32 G - -0.000016
0 32 - A -0.000006
0 32 - C 0.000046
0 32 - U -0.000037
0 32 - G 0.071587
0 32 - - -0.000037
0 33 A A -0.000041
0 33 A C 0.000517
0 33 A U -0.000362
0 33 A G -0.020257
0 33 A - 0.000035
0 33 C A 0.000059
0 33 C C 0.000038
0 33 C U -0.000011
0 33 C G 0.009961
0 33 C - 0.000910
0 33 U A -0.000012
0 33 U C -0.000033
0 33 U U -0.000989
0 33 U G -0.000524
0 33 U - -0.000006
0 33 G A 0.000873
0 33 G C 0.000997
0 33 G U -0.000213
0 33 G G -0.000994
0 33 G - -0.000017
0 33 - A -0.000012
0 33 - C 0.000772
0 33 - U 0.000953
0 33 - G 0.000638
0 33 - - 0.000001
0 34 A A -0.000035
0 34 A C -0.002507
0 34 A U -0.000045
0 34 A G -0.000030
0 34 A - 0.000025
0 34 C A 0.000055
0 34 C C 0.005026
0 34 C U -0.000051
0 34 C G -0.000043
0 34 C - -0.000007
0 34 U A -0.000040
0 34 U C -0.054163
0 34 U U -0.000055
0 34 U G 0.000005
0 34 U - 0.000030
0 34 G A 0.000020
0 34 G C -0.003733
0 34 G U -0.000024
0 34 G G -0.000049
0 34 G - -0.000013
0 34 - A 0.000036
0 34 - C 0.044581
0 34 - U -0.000013
0 34 - G 0.000012
0 34 - - 0.000021
0 35 A A -0.018634
0 35 A C 0.000032
0 35 A U 0.000032
0 35 A G 0.000101
0 35 A - -0.000064
0 35 C A 0.003789
0 35 C C 0.000940
0 35 C U -0.000038
0 35 C G -0.000150
0 35 C - 0.000004
0 35 U A -0.000518
0 35 U C -0.000031
0 35 U U 0.000049
0 35 U G -0.001171
0 35 U - -0.000032
0 35 G A 0.000156
0 35 G C 0.000041
0 35 G U 0.000037
0 35 G G -0.000083
0 35 G - -0.000017
0 35 - A 0.000782
0 35 - C 0.000015
0 35 - U 0.000048
0 35 - G 0.001656
0 35 - - 0.000044
0 36 A A -0.000018
0 36 A C -0.004168
0 36 A U -0.000014
0 36 A G 0.000018
0 36 A - 0.000025
0 36 C A -0.000031
0 36 C C 0.002029
0 36 C U 0.000994
0 36 C G -0.000020
0 36 C - 0.000183
0 36 U A 0.000032
0 36 U C -0.000706
0 36 U U -0.000069
0 36 U G -0.000019
0 36 U - 0.000019
0 36 G A -0.000041
0 36 G C -0.010133
0 36 G U 0.000029
0 36 G G 0.000782
0 36 G - -0.000026
0 36 - A 0.000048
0 36 - C 0.015689
0 36 - U -0.000043
0 36 - G -0.000049
0 36 - - 0.000043
0 37 A A -0.000008
0 37 A C -0.000769
0 37 A U -0.007468
0 37 A G 0.000036
0 37 A - -0.000046
0 37 C A -0.000012
0 37 C C 0.000242
0 37 C U 0.003611
0 37 C G -0.000038
0 37 C - 0.000878
0 37 U A 0.000032
0 37 U C -0.000784
0 37 U U -0.013591
0 37 U G -0.000009
0 37 U - -0.000005
0 37 G A 0.000015
0 37 G C -0.001976
0 37 G U -0.000120
0 37 G G -0.000025
0 37 G - -0.000000
0 37 - A 0.000001
0 37 - C 0.001644
0 37 - U 0.000802
0 37 - G -0.000029
0 37 - - 0.000037
0 38 A A 0.000046
0 38 A C -0.000035
0 38 A U -0.011283
0 38 A G -0.000038
0 38 A - 0.000010
0 38 C A 0.000901
0 38 C C 0.000031
0 38 C U 0.007678
0 38 C G -0.000037
0 38 C - -0.000018
0 38 U A -0.000004
0 38 U C 0.000011
0 38 U U -0.002137
0 38 U G 0.000418
0 38 U - -0.000031
0 38 G A 0.000027
0 38 G C -0.000029
0 38 G U 0.000916
0 38 G G -0.000061
0 38 G - 0.000010
0 38 - A -0.000031
0 38 - C -0.000015
0 38 - U 0.006796
0 38 - G 0.000636
0 38 - - 0.000013
0 39 A A 0.000039
0 39 A C -0.000032
0 39 A U -0.017474
0 39 A G -0.000493
0 39 A - 0.000018
0 39 C A 0.000005
0 39 C C 0.000914
0 39 C U 0.001003
0 39 C G 0.002745
0 39 C - 0.000020
0 39 U A -0.000186
0 39 U C 0.002141
0 39 U U -0.001072
0 39 U G -0.004608
0 39 U - 0.000040
0 39 G A -0.000089
0 39 G C -0.000049
0 39 G U 0.001280
0 39 G G -0.000046
0 39 G - 0.000007
0 39 - A -0.000034
0 39 - C -0.000017
0 39 - U 0.000628
0 39 - G 0.000791
0 39 - - 0.000906
0 40 A A -0.006415
0 40 A C -0.000006
0 40 A U -0.000047
0 40 A G -0.001494
0 40 A - 0.000247
0 40 C A 0.001220
0 40 C C 0.000022
0 40 C U -0.000004
0 40 C G 0.001569
0 40 C - -0.000004
0 40 U A -0.000355
0 40 U C 0.000006
0 40 U U -0.000057
0 40 U G -0.000575
0 40 U - 0.000019
0 40 G A 0.000663
0 40 G C -0.000057
0 40 G U -0.000069
0 40 G G 0.000096
0 40 G - 0.000013
0 40 - A -0.000008
0 40 - C 0.000949
0 40 - U -0.000002
0 40 - G 0.001589
0 40 - - -0.000036
0 41 A A -0.007520
0 41 A C -0.000061
0 41 A U -0.000191
0 41 A G -0.000160
0 41 A - 0.000115
0 41 C A 0.003661
0 41 C C 0.000585
0 41 C U 0.000019
0 41 C G -0.000067
0 41 C - -0.000036
0 41 U A -0.000079
0 41 U C 0.000112
0 41 U U -0.000034
0 41 U G -0.001464
0 41 U - -0.000020
0 41 G A 0.000245
0 41 G C 0.000814
0 41 G U 0.000028
0 41 G G -0.000079
0 41 G - -0.000010
0 41 - A -0.000040
0 41 - C 0.000985
0 41 - U -0.000007
0 41 - G 0.001617
0 41 - - -0.000039
0 42 A A -0.000732
0 42 A C -0.000266
0 42 A U -0.001033
0 42 A G -0.001301
0 42 A - 0.000835
0 42 C A -0.000069
0 42 C C 0.002370
0 42 C U 0.001321
0 42 C G 0.000002
0 42 C - 0.000312
0 42 U A 0.000268
0 42 U C -0.000316
0 42 U U -0.002097
0 42 U G 0.000315
0 42 U - -0.000041
0 42 G A -0.000693
0 42 G C 0.000853
0 42 G U 0.000932
0 42 G G 0.001361
0 42 G - 0.000013
0 42 - A -0.000008
0 42 - C 0.000018
0 42 - U 0.000044
0 42 - G 0.001728
0 42 - - 0.000600
0 43 A A -0.126456
0 43 A C -0.000667
0 43 A U -0.001227
0 43 A G 0.000656
0 43 A - 0.000204
0 43 C A 0.001630
0 43 C C -0.000043
0 43 C U -0.000003
0 43 C G 0.001731
0 43 C - 0.000537
0 43 U A -0.000068
0 43 U C -0.000081
0 43 U U -0.064919
0 43 U G -0.000093
0 43 U - -0.000036
0 43 G A -0.000062
0 43 G C 0.000597
0 43 G U 0.000006
0 43 G G 0.001241
0 43 G - 0.000035
0 43 - A 0.000001
0 43 - C 0.001775
0 43 - U -0.000006
0 43 - G 0.000665
0 43 - - 0.000002
0 44 A A -0.001844
0 44 A C 0.000019
0 44 A U -0.000055
0 44 A G -0.000263
0 44 A - 0.000047
0 44 C A 0.001360
0 44 C C -0.000000
0 44 C U -0.000007
0 44 C G 0.002870
0 44 C - -0.000023
0 44 U A -0.000190
0 44 U C 0.000023
0 44 U U -0.000036
0 44 U G -0.002469
0 44 U - 0.000664
0 44 G A -0.000187
0 44 G C 0.000030
0 44 G U -0.000051
0 44 G G 0.001048
0 44 G - -0.000001
0 44 - A 0.000717
0 44 - C -0.000036
0 44 - U -0.000015
0 44 - G 0.001563
0 44 - - -0.000004
0 45 A A 0.000686
0 45 A C -0.000266
0 45 A U -0.018880
0 45 A G -0.000033
0 45 A - 0.000043
0 45 C A 0.000024
0 45 C C 0.000511
0 45 C U 0.000815
0 45 C G 0.000497
0 45 C - 0.000495
0 45 U A -0.000022
0 45 U C -0.001586
0 45 U U -0.000259
0 45 U G 0.000104
0 45 U - 0.000023
0 45 G A -0.000047
0 45 G C -0.000131
0 45 G U 0.000735
0 45 G G 0.000686
0 45 G - 0.000046
0 45 - A 0.000015
0 45 - C 0.000928
0 45 - U 0.000723
0 45 - G 0.000619
0 45 - - -0.000028
0 46 A A -0.000757
0 46 A C -0.000052
0 46 A U -0.020522
0 46 A G -0.000327
0 46 A - -0.000021
0 46 C A -0.000046
0 46 C C 0.001173
0 46 C U 0.000246
0 46 C G 0.000459
0 46 C - -0.000004
0 46 U A -0.008559
0 46 U C -0.000016
0 46 U U -0.000051
0 46 U G -0.000988
0 46 U - 0.000007
0 46 G A 0.000303
0 46 G C 0.000037
0 46 G U -0.000024
0 46 G G 0.000314
0 46 G - -0.000043
0 46 - A -0.000033
0 46 - C -0.000046
0 46 - U -0.000035
0 46 - G 0.002661
0 46 - - -0.000017
0 47 A A -0.000035
0 47 A C -0.000040
0 47 A U -0.000670
0 47 A G -0.000901
0 47 A - 0.000004
0 47 C A 0.000893
0 47 C C 0.001127
0 47 C U 0.000410
0 47 C G 0.000192
0 47 C - 0.000027
0 47 U A -0.000047
0 47 U C 0.001226
0 47 U U -0.002824
0 47 U G -0.000144
0 47 U - -0.000046
0 47 G A 0.000523
0 47 G C -0.000040
0 47 G U 0.000300
0 47 G G -0.000249
0 47 G - 0.000047
0 47 - A -0.000029
0 47 - C 0.000599
0 47 - U 0.000793
0 47 - G 0.000932
0 47 - - 0.000020
0 48 A A -0.000027
0 48 A C -0.000023
0 48 A U -0.000012
0 48 A G -0.010231
0 48 A - 0.000021
0 48 C A 0.000435
0 48 C C -0.000033
0 48 C U -0.000032
0 48 C G 0.000513
0 48 C - 0.002087
0 48 U A 0.000267
0 48 U C -0.000016
0 48 U U -0.000087
0 48 U G -0.001094
0 48 U - 0.000002
0 48 G A 0.000523
0 48 G C -0.000031
0 48 G U 0.000721
0 48 G G -0.001322
0 48 G - -0.000015
0 48 - A -0.000040
0 48 - C -0.000038
0 48 - U -0.000036
0 48 - G 0.002632
0 48 - - 0.000042
0 49 A A 0.000020
0 49 A C 0.000031
0 49 A U -0.000040
0 49 A G -0.013129
0 49 A - -0.000033
0 49 C A 0.000051
0 49 C C -0.000026
0 49 C U 0.000037
0 49 C G 0.004112
0 49 C - 0.000040
0 49 U A -0.000017
0 49 U C -0.000024
0 49 U U 0.000029
0 49 U G -0.003213
0 49 U - -0.000050
0 49 G A -0.000017
0 49 G C -0.000019
0 49 G U -0.000054
0 49 G G -0.002805
0 49 G - 0.000030
0 49 - A 0.000015
0 49 - C -0.000004
0 49 - U 0.000048
0 49 - G 0.066916
0 49 - - -0.000034
0 50 A A -0.009697
0 50 A C 0.000020
0 50 A U 0.000026
0 50 A G 0.000016
0 50 A - 0.000004
0 50 C A 0.005887
0 50 C C -0.000041
0 50 C U 0.000022
0 50 C G -0.000014
0 50 C - -0.000041
0 50 U A -0.014945
0 50 U C -0.000040
0 50 U U -0.000029
0 50 U G 0.000023
0 50 U - -0.000028
0 50 G A -0.010746
0 50 G C 0.000027
0 50 G U -0.000031
0 50 G G -0.000025
0 50 G - -0.000014
0 50 - A 0.066058
0 50 - C -0.000040
0 50 - U -0.000050
0 50 - G -0.000046
0 50 - - 0.000636
0 51 A A 0.000031
0 51 A C 0.000869
0 51 A U 0.000000
0 51 A G -0.005603
0 51 A - 0.000009
0 51 C A -0.000004
0 51 C C -0.000047
0 51 C U -0.000046
0 51 C G 0.005218
0 51 C - 0.000001
0 51 U A -0.000027
0 51 U C -0.000021
0 51 U U 0.000170
0 51 U G -0.005174
0 51 U - -0.000010
0 51 G A 0.000028
0 51 G C -0.000019
0 51 G U -0.000010
0 51 G G -0.004770
0 51 G - -0.000015
0 51 - A -0.000007
0 51 - C 0.000029
0 51 - U 0.000012
0 51 - G 0.040463
0 51 - - -0.000002
0 52 A A -0.000058
0 52 A C -0.001595
0 52 A U -0.002351
0 52 A G -0.000002
0 52 A - -0.000035
0 52 C A -0.000027
0 52 C C 0.003665
0 52 C U 0.000302
0 52 C G 0.000026
0 52 C - 0.000025
0 52 U A 0.000155
0 52 U C -0.002129
0 52 U U -0.000375
0 52 U G 0.000445
0 52 U - 0.000019
0 52 G A 0.000001
0 52 G C -0.015266
0 52 G U 0.000924
0 52 G G -0.000008
0 52 G - 0.000016
0 52 - A 0.000039
0 52 - C 0.002621
0 52 - U -0.000028
0 52 - G 0.000031
0 52 - - 0.000045
0 53 A A -0.000189
0 53 A C -0.000411
0 53 A U -0.005175
0 53 A G -0.000025
0 53 A - -0.000006
0 53 C A -0.000043
0 53 C C 0.001906
0 53 C U 0.002530
0 53 C G -0.000054
0 53 C - -0.000045
0 53 U A 0.000009
0 53 U C -0.001689
0 53 U U -0.000134
0 53 U G -0.000023
0 53 U - -0.000001
0 53 G A 0.000018
0 53 G C 0.001435
0 53 G U 0.000122
0 53 G G -0.000175
0 53 G - -0.000043
0 53 - A -0.000041
0 53 - C 0.000927
0 53 - U 0.001595
0 53 - G 0.000033
0 53 - - -0.000031
0 54 A A -0.020963
0 54 A C -0.000018
0 54 A U -0.000036
0 54 A G 0.000019
0 54 A - -0.000020
0 54 C A 0.006708
0 54 C C 0.000358
0 54 C U -0.000018
0 54 C G -0.000040
0 54 C - 0.000003
0 54 U A -0.001079
0 54 U C 0.000022
0 54 U U -0.000017
0 54 U G -0.000042
0 54 U - -0.000005
0 54 G A -0.006938
0 54 G C 0.000043
0 54 G U -0.000008
0 54 G G -0.000013
0 54 G - -0.000009
0 54 - A 0.056743
0 54 - C -0.000016
0 54 - U -0.000016
0 54 - G -0.000011
0 54 - - 0.000004
0 55 A A -0.001757
0 55 A C 0.000750
0 55 A U -0.000045
0 55 A G -0.002868
0 55 A - -0.000021
0 55 C A 0.001018
0 55 C C -0.000044
0 55 C U -0.000028
0 55 C G 0.003166
0 55 C - -0.000015
0 55 U A -0.000347
0 55 U C 0.000330
0 55 U U 0.000683
0 55 U G -0.003115
0 55 U - 0.000030
0 55 G A 0.001697
0 55 G C 0.000018
0 55 G U 0.000028
0 55 G G -0.003518
0 55 G - -0.000046
0 55 - A 0.000046
0 55 - C 0.000037
0 55 - U -0.000000
0 55 - G 0.003353
0 55 - - -0.000050
0 56 A A -0.000019
0 56 A C 0.000003
0 56 A U -0.033788
0 56 A G 0.000048
0 56 A - -0.000041
0 56 C A 0.000027
0 56 C C 0.000024
0 56 C U 0.005931
0 56 C G -0.000040
0 56 C - -0.000032
0 56 U A -0.000033
0 56 U C 0.000026
0 56 U U -0.016343
0 56 U G 0.000032
0 56 U - 0.000042
0 56 G A 0.000032
0 56 G C 0.000589
0 56 G U -0.001888
0 56 G G 0.000022
0 56 G - -0.000032
0 56 - A -0.000020
0 56 - C 0.000014
0 56 - U 0.046272
0 56 - G -0.000007
0 56 - - 0.000011
0 57 A A -0.001041
0 57 A C -0.000056
0 57 A U 0.000011
0 57 A G -0.001065
0 57 A - -0.000026
0 57 C A 0.001689
0 57 C C 0.000030
0 57 C U 0.000917
0 57 C G 0.000196
0 57 C - -0.000033
0 57 U A -0.091426
0 57 U C -0.000015
0 57 U U -0.000041
0 57 U G -0.000428
0 57 U - -0.000035
0 57 G A 0.001029
0 57 G C -0.000041
0 57 G U -0.000025
0 57 G G -0.007429
0 57 G - -0.000034
0 57 - A 0.000647
0 57 - C -0.000002
0 57 - U 0.000011
0 57 - G 0.001808
0 57 - - 0.000015
0 58 A A -0.000039
0 58 A C 0.000042
0 58 A U -0.000023
0 58 A G -0.040878
0 58 A - -0.000050
0 58 C A -0.000038
0 58 C C 0.000021
0 58 C U -0.000000
0 58 C G 0.005352
0 58 C - 0.000008
0 58 U A -0.000071
0 58 U C -0.000004
0 58 U U 0.000003
0 58 U G -0.001885
0 58 U - 0.000736
0 58 G A -0.000046
0 58 G C 0.000019
0 58 G U 0.000841
0 58 G G -0.005316
0 58 G - -0.000027
0 58 - A -0.000050
0 58 - C 0.000757
0 58 - U 0.000011
0 58 - G 0.040622
0 58 - - 0.000001
0 59 A A -0.000043
0 59 A C -0.000004
0 59 A U -0.009707
0 59 A G 0.000004
0 59 A - -0.000005
0 59 C A 0.000027
0 59 C C 0.000824
0 59 C U 0.005662
0 59 C G -0.000031
0 59 C - 0.000046
0 59 U A 0.000008
0 59 U C -0.000824
0 59 U U -0.002312
0 59 U G 0.000011
0 59 U - 0.000490
0 59 G A -0.000029
0 59 G C -0.000082
0 59 G U -0.000969
0 59 G G 0.001045
0 59 G - -0.000041
0 59 - A -0.000029
0 59 - C 0.001644
0 59 - U 0.000727
0 59 - G 0.000041
0 59 - - 0.000021
0 60 A A -0.000000
0 60 A C 0.000033
0 60 A U -0.000045
0 60 A G -0.011340
0 60 A - 0.000022
0 60 C A -0.000041
0 60 C C -0.000012
0 60 C U -0.000035
0 60 C G 0.006159
0 60 C - -0.000009
0 60 U A -0.000046
0 60 U C 0.000005
0 60 U U 0.000022
0 60 U G -0.001805
0 60 U - 0.000008
0 60 G A 0.000007
0 60 G C -0.000002
0 60 G U -0.000006
0 60 G G -0.008858
0 60 G - -0.000001
0 60 - A 0.000034
0 60 - C -0.000035
0 60 - U 0.000034
0 60 - G 0.069900
0 60 - - -0.000034
0 61 A A -0.001325
0 61 A C -0.013570
0 61 A U 0.000014
0 61 A G 0.000002
0 61 A - 0.000041
0 61 C A -0.000057
0 61 C C 0.007478
0 61 C U -0.000002
0 61 C G 0.000006
0 61 C - 0.000933
0 61 U A -0.000427
0 61 U C -0.000742
0 61 U U 0.000443
0 61 U G -0.000028
0 61 U - -0.000012
0 61 G A -0.000605
0 61 G C -0.001171
0 61 G U 0.000003
0 61 G G 0.000634
0 61 G - 0.000021
0 61 - A 0.000904
0 61 - C 0.001661
0 61 - U 0.000010
0 61 - G -0.000037
0 61 - - -0.000003
0 62 A A -0.099510
0 62 A C -0.000007
0 62 A U -0.000042
0 62 A G 0.000020
0 62 A - 0.000010
0 62 C A 0.006204
0 62 C C 0.000908
0 62 C U 0.000021
0 62 C G -0.000009
0 62 C - -0.000007
0 62 U A -0.033753
0 62 U C -0.000018
0 62 U U 0.000052
0 62 U G -0.000026
0 62 U - -0.000012
0 62 G A 0.000126
0 62 G C -0.000039
0 62 G U 0.000011
0 62 G G 0.000616
0 62 G - 0.000048
0 62 - A 0.057745
0 62 - C 0.000975
0 62 - U -0.000009
0 62 - G 0.000025
0 62 - - -0.000046
0 63 A A -0.031194
0 63 A C 0.000038
0 63 A U -0.000021
0 63 A G 0.000001
0 63 A - -0.000022
0 63 C A 0.006739
0 63 C C 0.000008
0 63 C U -0.000027
0 63 C G -0.000042
0 63 C - -0.000026
0 63 U A -0.001739
0 63 U C 0.000010
0 63 U U 0.000017
0 63 U G -0.000004
0 63 U - 0.000002
0 63 G A -0.003886
0 63 G C -0.000042
0 63 G U -0.000039
0 63 G G -0.000034
0 63 G - -0.000014
0 63 - A 0.027867
0 63 - C 0.000005
0 63 - U 0.000016
0 63 - G -0.000031
0 63 - - -0.000039
0 64 A A -0.000017
0 64 A C -0.011382
0 64 A U 0.000325
0 64 A G -0.000025
0 64 A - -0.000005
0 64 C A 0.000048
0 64 C C 0.005182
0 64 C U -0.000003
0 64 C G 0.000039
0 64 C - 0.000022
0 64 U A -0.000025
0 64 U C -0.002955
0 64 U U 0.000095
0 64 U G 0.000029
0 64 U - -0.000005
0 64 G A 0.000041
0 64 G C -0.007486
0 64 G U -0.000009
0 64 G G -0.000017
0 64 G - 0.000037
0 64 - A -0.000027
0 64 - C 0.069180
0 64 - U -0.000010
0 64 - G 0.000035
0 64 - - 0.000000
0 65 A A -0.000033
0 65 A C -0.020678
0 65 A U -0.000041
0 65 A G -0.000003
0 65 A - 0.000043
0 65 C A -0.000039
0 65 C C 0.004687
0 65 C U 0.000038
0 65 C G 0.000000
0 65 C - -0.000028
0 65 U A -0.000028
0 65 U C -0.002692
0 65 U U -0.000035
0 65 U G -0.000043
0 65 U - 0.000034
0 65 G A -0.000046
0 65 G C -0.006848
0 65 G U -0.000003
0 65 G G 0.000024
0 65 G - -0.000024
0 65 - A -0.000045
0 65 - C 0.059182