# NB_STEPS 3000
# UP_FREQ 1000
# TEMP 1.000000
# LAMBDA 0.050000
# ID_THRES 1.000000
# ALPHA 1.308552
0 0 A A -0.002661
0 0 C C 0.001520
0 0 U U -0.008450
0 0 G G 0.000377
0 0 - - 0.009680
0 1 A A 0.000028
0 1 A C -0.000061
0 1 A U -0.000248
0 1 A G -0.000048
0 1 A - -0.000010
0 1 C A 0.000911
0 1 C C -0.000090
0 1 C U -0.000137
0 1 C G -0.000045
0 1 C - 0.000454
0 1 U A -0.000009
0 1 U C -0.000111
0 1 U U -0.001670
0 1 U G 0.000844
0 1 U - -0.000016
0 1 G A 0.001660
0 1 G C -0.000212
0 1 G U 0.000256
0 1 G G -0.000807
0 1 G - 0.000013
0 1 - A -0.000049
0 1 - C 0.000049
0 1 - U 0.000037
0 1 - G 0.000894
0 1 - - 0.000016
0 2 A A -0.000007
0 2 A C -0.000267
0 2 A U -0.000046
0 2 A G -0.000077
0 2 A - 0.000047
0 2 C A 0.000099
0 2 C C 0.000316
0 2 C U 0.001040
0 2 C G -0.000105
0 2 C - -0.000000
0 2 U A -0.000009
0 2 U C -0.000883
0 2 U U -0.012900
0 2 U G 0.001035
0 2 U - 0.000045
0 2 G A -0.000007
0 2 G C 0.060720
0 2 G U 0.000566
0 2 G G -0.002991
0 2 G - 0.000281
0 2 - A 0.000033
0 2 - C 0.000032
0 2 - U 0.000002
0 2 - G 0.000850
0 2 - - 0.000026
0 3 A A -0.000096
0 3 A C -0.000020
0 3 A U -0.000047
0 3 A G 0.000021
0 3 A - -0.000024
0 3 C A -0.000072
0 3 C C 0.002376
0 3 C U -0.000120
0 3 C G 0.000240
0 3 C - 0.000000
0 3 U A -0.000018
0 3 U C 0.000029
0 3 U U -0.000008
0 3 U G -0.045778
0 3 U - 0.000027
0 3 G A -0.002125
0 3 G C -0.000058
0 3 G U -0.000092
0 3 G G 0.013074
0 3 G - -0.000042
0 3 - A 0.001015
0 3 - C 0.000023
0 3 - U 0.000018
0 3 - G 0.000026
0 3 - - 0.000027
0 4 A A 0.000012
0 4 A C -0.000057
0 4 A U -0.000083
0 4 A G -0.000029
0 4 A - 0.000037
0 4 C A 0.000015
0 4 C C -0.001889
0 4 C U 0.001606
0 4 C G 0.000849
0 4 C - 0.000036
0 4 U A 0.000041
0 4 U C -0.000346
0 4 U U -0.000667
0 4 U G -0.000016
0 4 U - -0.000000
0 4 G A 0.000030
0 4 G C -0.000788
0 4 G U 0.000792
0 4 G G 0.000365
0 4 G - 0.000014
0 4 - A -0.000034
0 4 - C -0.000047
0 4 - U -0.000034
0 4 - G 0.000904
0 4 - - 0.000030
0 5 A A -0.000005
0 5 A C 0.000044
0 5 A U -0.000046
0 5 A G -0.000221
0 5 A - 0.000027
0 5 C A 0.003889
0 5 C C -0.000023
0 5 C U 0.000021
0 5 C G -0.001071
0 5 C - 0.000004
0 5 U A -0.000012
0 5 U C -0.000019
0 5 U U 0.000049
0 5 U G -0.012900
0 5 U - 0.000036
0 5 G A -0.000473
0 5 G C 0.000010
0 5 G U 0.000035
0 5 G G 0.003549
0 5 G - 0.000026
0 5 - A 0.000051
0 5 - C -0.000015
0 5 - U 0.000033
0 5 - G 0.000819
0 5 - - 0.000036
0 6 A A -0.000050
0 6 A C 0.000058
0 6 A U -0.000478
0 6 A G -0.000035
0 6 A - 0.000040
0 6 C A 0.000312
0 6 C C 0.001360
0 6 C U -0.000451
0 6 C G -0.000020
0 6 C - -0.000041
0 6 U A -0.000035
0 6 U C -0.001506
0 6 U U -0.000389
0 6 U G 0.000006
0 6 U - 0.000041
0 6 G A 0.000010
0 6 G C -0.000965
0 6 G U -0.000174
0 6 G G 0.000756
0 6 G - 0.000998
0 6 - A -0.000000
0 6 - C 0.000034
0 6 - U 0.000839
0 6 - G -0.000011
0 6 - - 0.000017
0 7 A A -0.000067
0 7 A C 0.000018
0 7 A U -0.000017
0 7 A G -0.000794
0 7 A - -0.000017
0 7 C A -0.000337
0 7 C C 0.000043
0 7 C U -0.000048
0 7 C G 0.001469
0 7 C - -0.000035
0 7 U A 0.000006
0 7 U C 0.000023
0 7 U U -0.000020
0 7 U G -0.001405
0 7 U - 0.000000
0 7 G A 0.000279
0 7 G C -0.000010
0 7 G U -0.000044
0 7 G G -0.000322
0 7 G - 0.000016
0 7 - A -0.000007
0 7 - C -0.000038
0 7 - U 0.000002
0 7 - G 0.000981
0 7 - - 0.000011
0 8 A A -0.005208
0 8 A C 0.000026
0 8 A U -0.000041
0 8 A G 0.000044
0 8 A - 0.000048
0 8 C A 0.000877
0 8 C C 0.000039
0 8 C U 0.000001
0 8 C G 0.000029
0 8 C - -0.000040
0 8 U A -0.009626
0 8 U C -0.000006
0 8 U U 0.000048
0 8 U G -0.000050
0 8 U - 0.000048
0 8 G A -0.001152
0 8 G C -0.000019
0 8 G U 0.000050
0 8 G G 0.000598
0 8 G - 0.000803
0 8 - A 0.008804
0 8 - C -0.000048
0 8 - U 0.000008
0 8 - G 0.000034
0 8 - - 0.000035
0 9 A A -0.000022
0 9 A C -0.003647
0 9 A U 0.000015
0 9 A G -0.000016
0 9 A - 0.000045
0 9 C A -0.000013
0 9 C C 0.001584
0 9 C U 0.000044
0 9 C G 0.000031
0 9 C - 0.000019
0 9 U A -0.000015
0 9 U C -0.008133
0 9 U U 0.000009
0 9 U G -0.000028
0 9 U - 0.000039
0 9 G A 0.000041
0 9 G C -0.000079
0 9 G U 0.000048
0 9 G G 0.000045
0 9 G - 0.000013
0 9 - A 0.000045
0 9 - C 0.015325
0 9 - U -0.000023
0 9 - G -0.000027
0 9 - - -0.000041
0 10 A A 0.000012
0 10 A C -0.000038
0 10 A U -0.003442
0 10 A G -0.000012
0 10 A - -0.000034
0 10 C A -0.000012
0 10 C C 0.000025
0 10 C U 0.001112
0 10 C G 0.000043
0 10 C - 0.000006
0 10 U A 0.000025
0 10 U C -0.000031
0 10 U U -0.010644
0 10 U G -0.000010
0 10 U - 0.000025
0 10 G A -0.000039
0 10 G C -0.000046
0 10 G U -0.000551
0 10 G G 0.001195
0 10 G - 0.000044
0 10 - A 0.000028
0 10 - C 0.000039
0 10 - U 0.010274
0 10 - G -0.000025
0 10 - - 0.000042
0 11 A A 0.000047
0 11 A C 0.000045
0 11 A U 0.000017
0 11 A G -0.001982
0 11 A - 0.000017
0 11 C A 0.000013
0 11 C C -0.000021
0 11 C U -0.000046
0 11 C G 0.000976
0 11 C - 0.000048
0 11 U A 0.000046
0 11 U C -0.000007
0 11 U U -0.000026
0 11 U G -0.010088
0 11 U - -0.000006
0 11 G A -0.000003
0 11 G C -0.000026
0 11 G U 0.000023
0 11 G G 0.000279
0 11 G - -0.000001
0 11 - A 0.000037
0 11 - C 0.000017
0 11 - U 0.000017
0 11 - G 0.004712
0 11 - - 0.000041
0 12 A A -0.000058
0 12 A C -0.000011
0 12 A U 0.000025
0 12 A G -0.000411
0 12 A - -0.000049
0 12 C A -0.000010
0 12 C C 0.000050
0 12 C U 0.001351
0 12 C G -0.002367
0 12 C - -0.000019
0 12 U A 0.000011
0 12 U C 0.000049
0 12 U U 0.000048
0 12 U G -0.001444
0 12 U - -0.000018
0 12 G A 0.000636
0 12 G C 0.000347
0 12 G U -0.000000
0 12 G G 0.002407
0 12 G - -0.000013
0 12 - A -0.000039
0 12 - C -0.000001
0 12 - U -0.000009
0 12 - G 0.001071
0 12 - - -0.000001
0 13 A A 0.000039
0 13 A C -0.003471
0 13 A U 0.000029
0 13 A G -0.000031
0 13 A - 0.000010
0 13 C A -0.000006
0 13 C C 0.000616
0 13 C U -0.000031
0 13 C G 0.000538
0 13 C - 0.000033
0 13 U A -0.000033
0 13 U C -0.010836
0 13 U U 0.000046
0 13 U G 0.000002
0 13 U - 0.000041
0 13 G A 0.000000
0 13 G C -0.000037
0 13 G U -0.000007
0 13 G G -0.000015
0 13 G - 0.000003
0 13 - A 0.000035
0 13 - C 0.006092
0 13 - U 0.000038
0 13 - G 0.000018
0 13 - - 0.000047
0 14 A A 0.000001
0 14 A C 0.000020
0 14 A U 0.000001
0 14 A G -0.004935
0 14 A - 0.000032
0 14 C A -0.000015
0 14 C C 0.000043
0 14 C U 0.000016
0 14 C G 0.001479
0 14 C - -0.000022
0 14 U A -0.000024
0 14 U C 0.000033
0 14 U U 0.000036
0 14 U G -0.014101
0 14 U - -0.000036
0 14 G A 0.000035
0 14 G C -0.000022
0 14 G U 0.000014
0 14 G G 0.000323
0 14 G - -0.000014
0 14 - A 0.000020
0 14 - C 0.000020
0 14 - U 0.000015
0 14 - G 0.007972
0 14 - - 0.000020
0 15 A A 0.000015
0 15 A C -0.000027
0 15 A U 0.000023
0 15 A G -0.000618
0 15 A - 0.000259
0 15 C A -0.275154
0 15 C C -0.000031
0 15 C U 0.000781
0 15 C G 0.020331
0 15 C - 0.001458
0 15 U A -0.000020
0 15 U C -0.000037
0 15 U U -0.000051
0 15 U G -0.000135
0 15 U - 0.000003
0 15 G A 0.149245
0 15 G C -0.057916
0 15 G U 0.000215
0 15 G G 0.000591
0 15 G - 0.000530
0 15 - A -0.000014
0 15 - C 0.000841
0 15 - U 0.000044
0 15 - G 0.000167
0 15 - - 0.000011
0 16 A A -0.006096
0 16 A C -0.000063
0 16 A U 0.000526
0 16 A G 0.000020
0 16 A - 0.000039
0 16 C A 0.011083
0 16 C C -0.000188
0 16 C U -0.001185
0 16 C G 0.000776
0 16 C - 0.000040
0 16 U A -0.002921
0 16 U C -0.000018
0 16 U U -0.000029
0 16 U G -0.000028
0 16 U - 0.000035
0 16 G A -0.000560
0 16 G C 0.000501
0 16 G U -0.001331
0 16 G G 0.001686
0 16 G - 0.000028
0 16 - A 0.000022
0 16 - C -0.000029
0 16 - U -0.000018
0 16 - G 0.000838
0 16 - - 0.000046
0 17 A A -0.000258
0 17 A C -0.000015
0 17 A U 0.000013
0 17 A G 0.000016
0 17 A - 0.000016
0 17 C A 0.001082
0 17 C C 0.000962
0 17 C U 0.000742
0 17 C G -0.001086
0 17 C - 0.000030
0 17 U A -0.000317
0 17 U C -0.000011
0 17 U U -0.000019
0 17 U G -0.000082
0 17 U - -0.000014
0 17 G A 0.000707
0 17 G C 0.000614
0 17 G U 0.000531
0 17 G G -0.000777
0 17 G - 0.000017
0 17 - A 0.001017
0 17 - C -0.000003
0 17 - U -0.000024
0 17 - G -0.000009
0 17 - - 0.000042
0 18 A A -0.000065
0 18 A C -0.000004
0 18 A U -0.000052
0 18 A G -0.000002
0 18 A - -0.000093
0 18 C A 0.000574
0 18 C C 0.000421
0 18 C U -0.000053
0 18 C G 0.000475
0 18 C - 0.000858
0 18 U A -0.000065
0 18 U C -0.000087
0 18 U U 0.000002
0 18 U G 0.000024
0 18 U - 0.000565
0 18 G A 0.000041
0 18 G C 0.000004
0 18 G U 0.000107
0 18 G G -0.000627
0 18 G - 0.001667
0 18 - A -0.000043
0 18 - C -0.000028
0 18 - U 0.000836
0 18 - G 0.000047
0 18 - - 0.000027
0 19 A A 0.000010
0 19 A C 0.000000
0 19 A U 0.000043
0 19 A G 0.000038
0 19 A - -0.003847
0 19 C A -0.000023
0 19 C C 0.000078
0 19 C U -0.000022
0 19 C G 0.000094
0 19 C - 0.002372
0 19 U A 0.000001
0 19 U C 0.000388
0 19 U U -0.000000
0 19 U G -0.000005
0 19 U - -0.000917
0 19 G A 0.000165
0 19 G C 0.000004
0 19 G U 0.000339
0 19 G G -0.001389
0 19 G - 0.001832
0 19 - A 0.000891
0 19 - C 0.000066
0 19 - U -0.000025
0 19 - G -0.000022
0 19 - - -0.000014
0 20 A A -0.000049
0 20 A C 0.000014
0 20 A U -0.000038
0 20 A G -0.000564
0 20 A - 0.000030
0 20 C A 0.000573
0 20 C C 0.000265
0 20 C U -0.000009
0 20 C G 0.001278
0 20 C - 0.000000
0 20 U A 0.000137
0 20 U C -0.000002
0 20 U U 0.000009
0 20 U G -0.001917
0 20 U - 0.000045
0 20 G A -0.000218
0 20 G C 0.000028
0 20 G U 0.000024
0 20 G G -0.000177
0 20 G - -0.000012
0 20 - A -0.000027
0 20 - C 0.000018
0 20 - U 0.000048
0 20 - G 0.001023
0 20 - - 0.000012
0 21 A A -0.000048
0 21 A C 0.000019
0 21 A U -0.000933
0 21 A G 0.000002
0 21 A - 0.000050
0 21 C A 0.000888
0 21 C C -0.000043
0 21 C U -0.000803
0 21 C G -0.000047
0 21 C - 0.000019
0 21 U A 0.000025
0 21 U C -0.000032
0 21 U U -0.001475
0 21 U G -0.000042
0 21 U - 0.000002
0 21 G A 0.000041
0 21 G C 0.000033
0 21 G U 0.000384
0 21 G G 0.000013
0 21 G - 0.000034
0 21 - A -0.000046
0 21 - C -0.000039
0 21 - U 0.001022
0 21 - G -0.000048
0 21 - - 0.000018
0 22 A A 0.000040
0 22 A C -0.000049
0 22 A U 0.000013
0 22 A G -0.000804
0 22 A - -0.000029
0 22 C A -0.000010
0 22 C C -0.000050
0 22 C U 0.000019
0 22 C G 0.001653
0 22 C - -0.000041
0 22 U A -0.000020
0 22 U C 0.000064
0 22 U U 0.000044
0 22 U G -0.015408
0 22 U - 0.000008
0 22 G A -0.000017
0 22 G C 0.000007
0 22 G U 0.000037
0 22 G G 0.000667
0 22 G - 0.000029
0 22 - A -0.000032
0 22 - C -0.000016
0 22 - U -0.000032
0 22 - G 0.013244
0 22 - - -0.000032
0 23 A A -0.000030
0 23 A C -0.000047
0 23 A U -0.000031
0 23 A G -0.001740
0 23 A - -0.000007
0 23 C A -0.000019
0 23 C C 0.000017
0 23 C U 0.000049
0 23 C G 0.001535
0 23 C - 0.000025
0 23 U A 0.000006
0 23 U C 0.000047
0 23 U U 0.000013
0 23 U G -0.012059
0 23 U - 0.000037
0 23 G A 0.000823
0 23 G C 0.000003
0 23 G U -0.000011
0 23 G G -0.000648
0 23 G - 0.000024
0 23 - A -0.000007
0 23 - C -0.000022
0 23 - U -0.000027
0 23 - G 0.006392
0 23 - - -0.000047
0 24 A A -0.000650
0 24 A C -0.000047
0 24 A U -0.000020
0 24 A G -0.000001
0 24 A - -0.000050
0 24 C A 0.003445
0 24 C C -0.000004
0 24 C U 0.000018
0 24 C G -0.000900
0 24 C - 0.000002
0 24 U A -0.001250
0 24 U C 0.000001
0 24 U U 0.000031
0 24 U G -0.000084
0 24 U - -0.000012
0 24 G A -0.003273
0 24 G C -0.000008
0 24 G U -0.000024
0 24 G G 0.001483
0 24 G - 0.000010
0 24 - A 0.001073
0 24 - C -0.000031
0 24 - U -0.000000
0 24 - G 0.000044
0 24 - - -0.000032
0 25 A A -0.000567
0 25 A C -0.000045
0 25 A U -0.000006
0 25 A G 0.000431
0 25 A - 0.000031
0 25 C A 0.001085
0 25 C C -0.000086
0 25 C U 0.000452
0 25 C G 0.000191
0 25 C - 0.000033
0 25 U A 0.000281
0 25 U C -0.000036
0 25 U U -0.000472
0 25 U G -0.000245
0 25 U - 0.000030
0 25 G A -0.001318
0 25 G C -0.000144
0 25 G U 0.003041
0 25 G G 0.000874
0 25 G - -0.000041
0 25 - A 0.000046
0 25 - C 0.000977
0 25 - U -0.000013
0 25 - G 0.000043
0 25 - - -0.000008
0 26 A A -0.000040
0 26 A C 0.000013
0 26 A U -0.000246
0 26 A G 0.000032
0 26 A - -0.000008
0 26 C A -0.000392
0 26 C C -0.000695
0 26 C U 0.002944
0 26 C G 0.000866
0 26 C - -0.000005
0 26 U A -0.000219
0 26 U C -0.000254
0 26 U U 0.000253
0 26 U G -0.000047
0 26 U - 0.000039
0 26 G A 0.001419
0 26 G C -0.000721
0 26 G U -0.001255
0 26 G G 0.001376
0 26 G - -0.000008
0 26 - A -0.000021
0 26 - C 0.001032
0 26 - U -0.000037
0 26 - G -0.000001
0 26 - - 0.000032
0 27 A A -0.007128
0 27 A C 0.000010
0 27 A U 0.000041
0 27 A G 0.000018
0 27 A - 0.000016
0 27 C A 0.021308
0 27 C C -0.000548
0 27 C U -0.000047
0 27 C G -0.000048
0 27 C - 0.000032
0 27 U A -0.021041
0 27 U C -0.000041
0 27 U U -0.000039
0 27 U G -0.000034
0 27 U - 0.000016
0 27 G A -0.000031
0 27 G C -0.000036
0 27 G U 0.000330
0 27 G G -0.000031
0 27 G - 0.000006
0 27 - A 0.000964
0 27 - C 0.000071
0 27 - U -0.000015
0 27 - G 0.000026
0 27 - - 0.000841
0 28 A A -0.000012
0 28 A C -0.003010
0 28 A U 0.000006
0 28 A G -0.000007
0 28 A - -0.000000
0 28 C A 0.000050
0 28 C C 0.001480
0 28 C U -0.000044
0 28 C G 0.000029
0 28 C - 0.000024
0 28 U A 0.000043
0 28 U C -0.010727
0 28 U U -0.000005
0 28 U G 0.000036
0 28 U - -0.000000
0 28 G A 0.000042
0 28 G C -0.000618
0 28 G U 0.000037
0 28 G G 0.000756
0 28 G - -0.000047
0 28 - A -0.000012
0 28 - C 0.012752
0 28 - U -0.000006
0 28 - G 0.000004
0 28 - - -0.000002
0 29 A A 0.000050
0 29 A C -0.000872
0 29 A U -0.000027
0 29 A G -0.000044
0 29 A - -0.000010
0 29 C A -0.000019
0 29 C C 0.001644
0 29 C U 0.000010
0 29 C G -0.000009
0 29 C - 0.000022
0 29 U A 0.000041
0 29 U C -0.013762
0 29 U U 0.000038
0 29 U G -0.000022
0 29 U - 0.000023
0 29 G A -0.000029
0 29 G C 0.000637
0 29 G U 0.000003
0 29 G G 0.000026
0 29 G - -0.000020
0 29 - A 0.000050
0 29 - C 0.013081
0 29 - U -0.000007
0 29 - G -0.000037
0 29 - - -0.000041
0 30 A A -0.002076
0 30 A C 0.000008
0 30 A U -0.000045
0 30 A G 0.000040
0 30 A - 0.000007
0 30 C A 0.001205
0 30 C C -0.000003
0 30 C U -0.000046
0 30 C G -0.000048
0 30 C - -0.000010
0 30 U A -0.001409
0 30 U C -0.000028
0 30 U U 0.000005
0 30 U G -0.000022
0 30 U - 0.000016
0 30 G A 0.000421
0 30 G C 0.000002
0 30 G U -0.000051
0 30 G G 0.000028
0 30 G - 0.000041
0 30 - A 0.001001
0 30 - C 0.000014
0 30 - U 0.000044
0 30 - G -0.000036
0 30 - - -0.000004
0 31 A A 0.000037
0 31 A C -0.000474
0 31 A U -0.000023
0 31 A G 0.000029
0 31 A - -0.000050
0 31 C A 0.000008
0 31 C C 0.001286
0 31 C U 0.000720
0 31 C G 0.000036
0 31 C - 0.000000
0 31 U A -0.000010
0 31 U C -0.001553
0 31 U U -0.001249
0 31 U G 0.000036
0 31 U - 0.000625
0 31 G A 0.000013
0 31 G C -0.000370
0 31 G U -0.000215
0 31 G G -0.000050
0 31 G - 0.000044
0 31 - A 0.000035
0 31 - C 0.001050
0 31 - U -0.000036
0 31 - G 0.000020
0 31 - - -0.000003
0 32 A A -0.000044
0 32 A C 0.000257
0 32 A U -0.000037
0 32 A G -0.000047
0 32 A - -0.000146
0 32 C A 0.000116
0 32 C C -0.004987
0 32 C U -0.000023
0 32 C G -0.000141
0 32 C - 0.004433
0 32 U A 0.000449
0 32 U C -0.000405
0 32 U U -0.000054
0 32 U G -0.000421
0 32 U - -0.000010
0 32 G A -0.000077
0 32 G C 0.000639
0 32 G U -0.000001
0 32 G G -0.000078
0 32 G - 0.000865
0 32 - A 0.000049
0 32 - C -0.000027
0 32 - U 0.000004
0 32 - G 0.000825
0 32 - - 0.000023
0 33 A A -0.000259
0 33 A C 0.000146
0 33 A U -0.000044
0 33 A G -0.000247
0 33 A - 0.000008
0 33 C A 0.001408
0 33 C C 0.000243
0 33 C U 0.000034
0 33 C G -0.003873
0 33 C - 0.000365
0 33 U A -0.001787
0 33 U C 0.000622
0 33 U U -0.000013
0 33 U G -0.001527
0 33 U - 0.000007
0 33 G A 0.000180
0 33 G C 0.001050
0 33 G U 0.000641
0 33 G G -0.002417
0 33 G - 0.000045
0 33 - A 0.000039
0 33 - C 0.000020
0 33 - U 0.000030
0 33 - G 0.000816
0 33 - - -0.000002
0 34 A A -0.000030
0 34 A C -0.000021
0 34 A U -0.000009
0 34 A G -0.001141
0 34 A - -0.000025
0 34 C A 0.000050
0 34 C C 0.000039
0 34 C U -0.013339
0 34 C G 0.001924
0 34 C - 0.000027
0 34 U A -0.000001
0 34 U C -0.000015
0 34 U U -0.000065
0 34 U G -0.025490
0 34 U - 0.000021
0 34 G A -0.000028
0 34 G C -0.000044
0 34 G U -0.000224
0 34 G G 0.000766
0 34 G - 0.000311
0 34 - A 0.000051
0 34 - C -0.000034
0 34 - U -0.000039
0 34 - G 0.001099
0 34 - - 0.000032
0 35 A A -0.000047
0 35 A C -0.000030
0 35 A U -0.000047
0 35 A G -0.003566
0 35 A - -0.000047
0 35 C A 0.000019
0 35 C C -0.000047
0 35 C U -0.000044
0 35 C G 0.001553
0 35 C - -0.000025
0 35 U A 0.000016
0 35 U C 0.000020
0 35 U U -0.000014
0 35 U G -0.010177
0 35 U - -0.000047
0 35 G A 0.000019
0 35 G C 0.000021
0 35 G U 0.000003
0 35 G G 0.000344
0 35 G - -0.000039
0 35 - A -0.000016
0 35 - C -0.000047
0 35 - U -0.000047
0 35 - G 0.006471
0 35 - - -0.000047
0 36 A A -0.000019
0 36 A C -0.000027
0 36 A U -0.000043
0 36 A G -0.017170
0 36 A - 0.000049
0 36 C A -0.000957
0 36 C C 0.000221
0 36 C U 0.000924
0 36 C G 0.000643
0 36 C - -0.000008
0 36 U A 0.000004
0 36 U C 0.000030
0 36 U U -0.000041
0 36 U G -0.002443
0 36 U - 0.000048
0 36 G A 0.000337
0 36 G C -0.000006
0 36 G U -0.000021
0 36 G G -0.000906
0 36 G - 0.001266
0 36 - A 0.000054
0 36 - C 0.000046
0 36 - U -0.000001
0 36 - G 0.000847
0 36 - - 0.000027
0 37 A A -0.004307
0 37 A C 0.000031
0 37 A U 0.000043
0 37 A G -0.000044
0 37 A - 0.000043
0 37 C A 0.000519
0 37 C C -0.000032
0 37 C U 0.000041
0 37 C G 0.000917
0 37 C - 0.000013
0 37 U A -0.011004
0 37 U C 0.000019
0 37 U U 0.000039
0 37 U G -0.000019
0 37 U - -0.000022
0 37 G A -0.000448
0 37 G C 0.000810
0 37 G U -0.000009
0 37 G G -0.000030
0 37 G - 0.000020
0 37 - A 0.006900
0 37 - C 0.000008
0 37 - U -0.000043
0 37 - G 0.000033
0 37 - - 0.000014
0 38 A A -0.000001
0 38 A C -0.000000
0 38 A U -0.000017
0 38 A G -0.000618
0 38 A - -0.000024
0 38 C A 0.000010
0 38 C C -0.000022
0 38 C U -0.000024
0 38 C G 0.001191
0 38 C - 0.000049
0 38 U A 0.000013
0 38 U C -0.000033
0 38 U U 0.000023
0 38 U G -0.004948
0 38 U - 0.000032
0 38 G A -0.000033
0 38 G C 0.000783
0 38 G U 0.000039
0 38 G G 0.000026
0 38 G - -0.000047
0 38 - A 0.000000
0 38 - C -0.000034
0 38 - U 0.000011
0 38 - G 0.000998
0 38 - - -0.000050
0 39 A A 0.000037
0 39 A C -0.000295
0 39 A U -0.000036
0 39 A G 0.000037
0 39 A - 0.000042
0 39 C A 0.000042
0 39 C C -0.001950
0 39 C U 0.002591
0 39 C G 0.000954
0 39 C - 0.000027
0 39 U A -0.000044
0 39 U C -0.011901
0 39 U U -0.000068
0 39 U G 0.000008
0 39 U - 0.000018
0 39 G A -0.000045
0 39 G C 0.002650
0 39 G U -0.000910
0 39 G G 0.000043
0 39 G - 0.000016
0 39 - A -0.000004
0 39 - C 0.000888
0 39 - U 0.000009
0 39 - G 0.000014
0 39 - - -0.000008
0 40 A A -0.000088
0 40 A C 0.000028
0 40 A U -0.000054
0 40 A G -0.000080
0 40 A - -0.000013
0 40 C A 0.001447
0 40 C C 0.000842
0 40 C U -0.000046
0 40 C G -0.001891
0 40 C - -0.000036
0 40 U A -0.000574
0 40 U C -0.000029
0 40 U U -0.000027
0 40 U G -0.000384
0 40 U - -0.000032
0 40 G A 0.000907
0 40 G C 0.000384
0 40 G U 0.000041
0 40 G G -0.001122
0 40 G - 0.000021
0 40 - A -0.000024
0 40 - C 0.000894
0 40 - U -0.000028
0 40 - G 0.000035
0 40 - - -0.000014
0 41 A A -0.000055
0 41 A C -0.000015
0 41 A U -0.000114
0 41 A G -0.000021
0 41 A - 0.000017
0 41 C A -0.000052
0 41 C C -0.001657
0 41 C U 0.001599
0 41 C G 0.002219
0 41 C - -0.000005
0 41 U A 0.000012
0 41 U C -0.031794
0 41 U U -0.000003
0 41 U G -0.000027
0 41 U - -0.000040
0 41 G A 0.000043
0 41 G C 0.004059
0 41 G U -0.000164
0 41 G G -0.000345
0 41 G - 0.000009
0 41 - A -0.000006
0 41 - C -0.000036
0 41 - U 0.001017
0 41 - G 0.000013
0 41 - - 0.000014
0 42 A A -0.000019
0 42 A C -0.000010
0 42 A U -0.000040
0 42 A G -0.000179
0 42 A - -0.000040
0 42 C A 0.001852
0 42 C C -0.000894
0 42 C U 0.000224
0 42 C G 0.000002
0 42 C - 0.000029
0 42 U A -0.006622
0 42 U C 0.001087
0 42 U U -0.000052
0 42 U G -0.000908
0 42 U - -0.000014
0 42 G A 0.000600
0 42 G C -0.000116
0 42 G U -0.000102
0 42 G G 0.050023
0 42 G - -0.000039
0 42 - A -0.000043
0 42 - C 0.000803
0 42 - U -0.000002
0 42 - G 0.000012
0 42 - - 0.000024
0 43 A A -0.000245
0 43 A C 0.000029
0 43 A U -0.000031
0 43 A G -0.000064
0 43 A - 0.000011
0 43 C A -0.000399
0 43 C C 0.000846
0 43 C U -0.000026
0 43 C G 0.000409
0 43 C - 0.000392
0 43 U A -0.000941
0 43 U C 0.000726
0 43 U U -0.000068
0 43 U G -0.000229
0 43 U - -0.000040
0 43 G A -0.000459
0 43 G C -0.000355
0 43 G U 0.001645
0 43 G G -0.000133
0 43 G - -0.000040
0 43 - A -0.000051
0 43 - C 0.000898
0 43 - U 0.000003
0 43 - G 0.000029
0 43 - - -0.000047
0 44 A A -0.000052
0 44 A C -0.000005
0 44 A U -0.080190
0 44 A G -0.000013
0 44 A - -0.000039
0 44 C A 0.000825
0 44 C C -0.000023
0 44 C U -0.000033
0 44 C G 0.005601
0 44 C - 0.000032
0 44 U A -0.092956
0 44 U C -0.000006
0 44 U U 0.000015
0 44 U G -0.000034
0 44 U - 0.000006
0 44 G A -0.000006
0 44 G C 0.378535
0 44 G U -0.001190
0 44 G G -0.000006
0 44 G - 0.000030
0 44 - A 0.000784
0 44 - C -0.000050
0 44 - U -0.000054
0 44 - G 0.000010
0 44 - - 0.000001
0 45 A A -0.000440
0 45 A C 0.000027
0 45 A U 0.000013
0 45 A G 0.000002
0 45 A - -0.000021
0 45 C A 0.017011
0 45 C C -0.000178
0 45 C U -0.005698
0 45 C G -0.000012
0 45 C - 0.000049
0 45 U A -0.000572
0 45 U C -0.000116
0 45 U U 0.000301
0 45 U G -0.000056
0 45 U - -0.000044
0 45 G A -0.001134
0 45 G C 0.000635
0 45 G U -0.000475
0 45 G G 0.001992
0 45 G - 0.000344
0 45 - A 0.000847
0 45 - C 0.000032
0 45 - U -0.000047
0 45 - G -0.000040
0 45 - - 0.000053
0 46 A A -0.000043
0 46 A C -0.000010
0 46 A U -0.000061
0 46 A G 0.000020
0 46 A - 0.000004
0 46 C A 0.003468
0 46 C C 0.000693
0 46 C U -0.000466
0 46 C G -0.000932
0 46 C - 0.000782
0 46 U A -0.014054
0 46 U C -0.000004
0 46 U U -0.000085
0 46 U G -0.000070
0 46 U - 0.000677
0 46 G A -0.000222
0 46 G C 0.000253
0 46 G U -0.000236
0 46 G G 0.002179
0 46 G - 0.000021
0 46 - A -0.000038
0 46 - C 0.000974
0 46 - U -0.000012
0 46 - G -0.000035
0 46 - - -0.000028
0 47 A A 0.000012
0 47 A C -0.000025
0 47 A U 0.000037
0 47 A G -0.000487
0 47 A - 0.000039
0 47 C A 0.000013
0 47 C C 0.000036
0 47 C U 0.000035
0 47 C G 0.001722
0 47 C - 0.000002
0 47 U A -0.000000
0 47 U C 0.000026
0 47 U U 0.000043
0 47 U G -0.014832
0 47 U - 0.000038
0 47 G A -0.000073
0 47 G C 0.000689
0 47 G U -0.000046
0 47 G G -0.000640
0 47 G - 0.000832
0 47 - A -0.000041
0 47 - C 0.000037
0 47 - U 0.000018
0 47 - G 0.004198
0 47 - - -0.000012
0 48 A A 0.000006
0 48 A C -0.000213
0 48 A U -0.000039
0 48 A G 0.000026
0 48 A - -0.000012
0 48 C A 0.000017
0 48 C C 0.000378
0 48 C U 0.001110
0 48 C G 0.000040
0 48 C - -0.000025
0 48 U A 0.000021
0 48 U C -0.006147
0 48 U U -0.000062
0 48 U G -0.000043
0 48 U - 0.000020
0 48 G A 0.000041
0 48 G C 0.000337
0 48 G U -0.000062
0 48 G G 0.000601
0 48 G - -0.000042
0 48 - A 0.000006
0 48 - C 0.001069
0 48 - U 0.000043
0 48 - G 0.000019
0 48 - - 0.000006
0 49 A A -0.000032
0 49 A C -0.005166
0 49 A U 0.000011
0 49 A G -0.000011
0 49 A - -0.000007
0 49 C A 0.000010
0 49 C C 0.001532
0 49 C U -0.000009
0 49 C G -0.000023
0 49 C - -0.000008
0 49 U A -0.000021
0 49 U C -0.009218
0 49 U U -0.000025
0 49 U G 0.000042
0 49 U - 0.000002
0 49 G A 0.000043
0 49 G C 0.000415
0 49 G U -0.000007
0 49 G G -0.000006
0 49 G - -0.000007
0 49 - A -0.000048
0 49 - C 0.006588
0 49 - U -0.000034
0 49 - G -0.000019
0 49 - - -0.000022
0 50 A A 0.000021
0 50 A C 0.000008
0 50 A U 0.000016
0 50 A G -0.004420
0 50 A - 0.000099
0 50 C A 0.000803
0 50 C C -0.000039
0 50 C U -0.000050
0 50 C G 0.000647
0 50 C - -0.000032
0 50 U A -0.000041
0 50 U C 0.000008
0 50 U U 0.000032
0 50 U G -0.008160
0 50 U - -0.000043
0 50 G A 0.001682
0 50 G C 0.000042
0 50 G U 0.000046
0 50 G G -0.001148
0 50 G - 0.000041
0 50 - A 0.000002
0 50 - C -0.000003
0 50 - U 0.000000
0 50 - G 0.013269
0 50 - - -0.000016
0 51 A A -0.010837
0 51 A C 0.000022
0 51 A U -0.000013
0 51 A G 0.000087
0 51 A - -0.000022
0 51 C A 0.006998
0 51 C C 0.001153
0 51 C U -0.002339
0 51 C G -0.000039
0 51 C - 0.001907
0 51 U A -0.000251
0 51 U C -0.000240
0 51 U U -0.000354
0 51 U G 0.000584
0 51 U - 0.000002
0 51 G A 0.002280
0 51 G C -0.001095
0 51 G U -0.001045
0 51 G G 0.000007
0 51 G - 0.001014
0 51 - A -0.000010
0 51 - C 0.000010
0 51 - U 0.000894
0 51 - G 0.000044
0 51 - - -0.000021
0 52 A A -0.000018
0 52 A C -0.008883
0 52 A U -0.000050
0 52 A G -0.000049
0 52 A - -0.000036
0 52 C A -0.000011
0 52 C C 0.005113
0 52 C U -0.039728
0 52 C G 0.000906
0 52 C - -0.000016
0 52 U A 0.000021
0 52 U C -0.000242
0 52 U U -0.000064
0 52 U G -0.000060
0 52 U - 0.000003
0 52 G A 0.000620
0 52 G C 0.000937
0 52 G U 0.009785
0 52 G G -0.001553
0 52 G - 0.000023
0 52 - A -0.000038
0 52 - C 0.000025
0 52 - U 0.000876
0 52 - G 0.000034
0 52 - - -0.000036
0 53 A A 0.000009
0 53 A C -0.008240
0 53 A U -0.000010
0 53 A G 0.000036
0 53 A - -0.000002
0 53 C A 0.000024
0 53 C C 0.001542
0 53 C U -0.000048
0 53 C G 0.000048
0 53 C - -0.000017
0 53 U A -0.000039
0 53 U C -0.009865
0 53 U U 0.000043
0 53 U G 0.000032
0 53 U - 0.000034
0 53 G A 0.000286
0 53 G C -0.000241
0 53 G U -0.000041
0 53 G G -0.000021
0 53 G - 0.000002
0 53 - A 0.000009
0 53 - C 0.012038
0 53 - U 0.000029
0 53 - G 0.000025
0 53 - - 0.000009
0 54 A A 0.000045
0 54 A C 0.000034
0 54 A U -0.000013
0 54 A G -0.004320
0 54 A - 0.000035
0 54 C A 0.000036
0 54 C C -0.000013
0 54 C U -0.000045
0 54 C G 0.001544
0 54 C - 0.000002
0 54 U A 0.000006
0 54 U C 0.000031
0 54 U U -0.000008
0 54 U G -0.010419
0 54 U - -0.000031
0 54 G A -0.000024
0 54 G C 0.000034
0 54 G U 0.000005
0 54 G G 0.000242
0 54 G - 0.000024
0 54 - A -0.000008
0 54 - C -0.000013
0 54 - U 0.000005
0 54 - G 0.010178
0 54 - - -0.000020
0 55 A A 0.000035
0 55 A C -0.000354
0 55 A U -0.000083
0 55 A G -0.000043
0 55 A - -0.000047
0 55 C A 0.000008
0 55 C C -0.000233
0 55 C U 0.000921
0 55 C G -0.000007
0 55 C - -0.000042
0 55 U A -0.000009
0 55 U C -0.004034
0 55 U U -0.000055
0 55 U G -0.000045
0 55 U - -0.000012
0 55 G A 0.000218
0 55 G C -0.000577
0 55 G U 0.000175
0 55 G G 0.000301
0 55 G - -0.000027
0 55 - A 0.000027
0 55 - C 0.000978
0 55 - U -0.000048
0 55 - G 0.000018
0 55 - - 0.000007
0 56 A A -0.000032
0 56 A C -0.002184
0 56 A U -0.000009
0 56 A G -0.000048
0 56 A - -0.000023
0 56 C A 0.000044
0 56 C C 0.001472
0 56 C U 0.000037
0 56 C G 0.000004
0 56 C - 0.000020
0 56 U A 0.000003
0 56 U C -0.009929
0 56 U U -0.000011
0 56 U G -0.000030
0 56 U - 0.000005
0 56 G A 0.000026
0 56 G C 0.000352
0 56 G U 0.000026
0 56 G G -0.000022
0 56 G - 0.000049
0 56 - A -0.000028
0 56 - C 0.007405
0 56 - U -0.000048
0 56 - G -0.000022
0 56 - - -0.000037
0 57 A A 0.000010
0 57 A C -0.000036
0 57 A U -0.002254
0 57 A G -0.000026
0 57 A - 0.000022
0 57 C A -0.000026
0 57 C C 0.000004
0 57 C U 0.001508
0 57 C G -0.000034
0 57 C - 0.000024
0 57 U A 0.000033
0 57 U C -0.000043
0 57 U U -0.013157
0 57 U G 0.000007
0 57 U - 0.000043
0 57 G A 0.000019
0 57 G C -0.000032
0 57 G U 0.000357
0 57 G G -0.000042
0 57 G - 0.000024
0 57 - A 0.000005
0 57 - C -0.000026
0 57 - U 0.010504
0 57 - G -0.000004
0 57 - - -0.000026
0 58 A A 0.000019
0 58 A C 0.000010
0 58 A U -0.000002
0 58 A G -0.004628
0 58 A - 0.000007
0 58 C A -0.000037
0 58 C C -0.000014
0 58 C U 0.000009
0 58 C G 0.000805
0 58 C - -0.000034
0 58 U A 0.000047
0 58 U C 0.000041
0 58 U U 0.000049
0 58 U G -0.010362
0 58 U - 0.000018
0 58 G A 0.000050
0 58 G C 0.000020
0 58 G U 0.000019
0 58 G G -0.000571
0 58 G - 0.000030
0 58 - A -0.000021
0 58 - C -0.000021
0 58 - U -0.000021
0 58 - G 0.010315
0 58 - - 0.000003
0 59 A A 0.000027
0 59 A C 0.000046
0 59 A U 0.000027
0 59 A G -0.004503
0 59 A - -0.000022
0 59 C A -0.000003
0 59 C C 0.000048
0 59 C U -0.000029
0 59 C G 0.001531
0 59 C - 0.000029
0 59 U A 0.000012
0 59 U C -0.000015
0 59 U U 0.000002
0 59 U G -0.007916
0 59 U - 0.000014
0 59 G A 0.000007
0 59 G C 0.000004
0 59 G U 0.000029
0 59 G G 0.000322
0 59 G - -0.000023
0 59 - A 0.000027
0 59 - C 0.000004
0 59 - U -0.000005
0 59 - G 0.006169
0 59 - - 0.000004
0 60 A A -0.000002
0 60 A C 0.000033
0 60 A U -0.000022
0 60 A G -0.001924
0 60 A - 0.000026
0 60 C A -0.000031
0 60 C C -0.000005
0 60 C U 0.000027
0 60 C G 0.001511
0 60 C - -0.000022
0 60 U A 0.000001
0 60 U C -0.000004
0 60 U U 0.000050
0 60 U G -0.009104
0 60 U - -0.000036
0 60 G A -0.000048
0 60 G C -0.000038
0 60 G U -0.000002
0 60 G G 0.000352
0 60 G - -0.000024
0 60 - A 0.000026
0 60 - C 0.000040
0 60 - U 0.000050
0 60 - G 0.010174
0 60 - - 0.000026
0 61 A A 0.000004
0 61 A C -0.000520
0 61 A U -0.000053
0 61 A G -0.000011
0 61 A - 0.000006
0 61 C A -0.000045
0 61 C C 0.001768
0 61 C U -0.000018
0 61 C G 0.000026
0 61 C - -0.000030
0 61 U A -0.000024
0 61 U C -0.003706
0 61 U U -0.000029
0 61 U G -0.000017
0 61 U - 0.000035
0 61 G A 0.000024
0 61 G C 0.000343
0 61 G U -0.000027
0 61 G G 0.000632
0 61 G - 0.000007
0 61 - A -0.000048
0 61 - C 0.001057
0 61 - U -0.000013
0 61 - G -0.000046
0 61 - - -0.000048
0 62 A A -0.000373
0 62 A C 0.000001
0 62 A U 0.000035
0 62 A G -0.000041
0 62 A - 0.000049
0 62 C A 0.000150
0 62 C C 0.000745
0 62 C U 0.000241
0 62 C G 0.000018
0 62 C - 0.000017
0 62 U A -0.053145
0 62 U C -0.000047
0 62 U U 0.000032
0 62 U G 0.000014
0 62 U - 0.000040
0 62 G A 0.001984
0 62 G C -0.000416
0 62 G U 0.000953
0 62 G G -0.000047
0 62 G - 0.000004
0 62 - A 0.000852
0 62 - C -0.000032
0 62 - U 0.000011
0 62 - G 0.000030
0 62 - - 0.000037
0 63 A A -0.000031
0 63 A C -0.000057
0 63 A U -0.000058
0 63 A G -0.000058
0 63 A - -0.000007
0 63 C A 0.001503
0 63 C C -0.000077
0 63 C U -0.000012
0 63 C G -0.000954
0 63 C - 0.000349
0 63 U A 0.000178
0 63 U C -0.000043
0 63 U U -0.000054
0 63 U G -0.000323
0 63 U - 0.000023
0 63 G A 0.001110
0 63 G C 0.000183
0 63 G U 0.000753
0 63 G G -0.000903
0 63 G - 0.000499
0 63 - A -0.000012
0 63 - C -0.000028
0 63 - U 0.000045
0 63 - G 0.001015
0 63 - - 0.000005
1 1 A A 0.001761
1 1 C C -0.001599
1 1 U U -0.001880
1 1 G G 0.003394
1 1 - - 0.000365
1 2 A A 0.000046
1 2 A C 0.000751
1 2 A U 0.001787
1 2 A G 0.000004
1 2 A - 0.000025
1 2 C A -0.000020
1 2 C C 0.000386
1 2 C U 0.000336
1 2 C G -0.000847
1 2 C - -0.000045
1 2 U A -0.000032
1 2 U C -0.136170
1 2 U U -0.000509
1 2 U G 0.025840
1 2 U - 0.000360
1 2 G A 0.000269
1 2 G C 0.010595
1 2 G U -0.000192
1 2 G G 0.000864
1 2 G - -0.000021
1 2 - A -0.000027
1 2 - C -0.000005
1 2 - U 0.000504
1 2 - G -0.000020
1 2 - - 0.000032
1 3 A A -0.000042
1 3 A C 0.000967
1 3 A U -0.000049
1 3 A G 0.001444
1 3 A - 0.000044
1 3 C A -0.000041
1 3 C C 0.001242
1 3 C U -0.000617
1 3 C G -0.000042
1 3 C - 0.000038
1 3 U A -0.042008
1 3 U C 0.001246
1 3 U U -0.000015
1 3 U G -0.000424
1 3 U - 0.000051
1 3 G A 0.000611
1 3 G C -0.000638
1 3 G U 0.000128
1 3 G G 0.016981
1 3 G - -0.000032
1 3 - A -0.000029
1 3 - C -0.000043