# NB_STEPS 3000
# UP_FREQ 1000
# TEMP 1.000000
# LAMBDA 0.050000
# ID_THRES 1.000000
# ALPHA 1.299375
0 0 A A -0.000028
0 0 C C -0.000023
0 0 U U 0.000002
0 0 G G -0.000030
0 0 - - 0.000013
0 1 A A 0.000052
0 1 A C -0.000042
0 1 A U -0.000043
0 1 A G 0.000020
0 1 A - 0.000052
0 1 C A -0.000034
0 1 C C 0.000015
0 1 C U -0.000018
0 1 C G -0.000029
0 1 C - 0.000052
0 1 U A 0.000003
0 1 U C -0.007850
0 1 U U -0.041222
0 1 U G 0.001784
0 1 U - -0.000001
0 1 G A -0.000034
0 1 G C 0.000031
0 1 G U 0.000020
0 1 G G 0.000045
0 1 G - 0.000052
0 1 - A -0.000029
0 1 - C -0.000004
0 1 - U 0.000039
0 1 - G 0.000052
0 1 - - -0.000040
0 2 A A -0.000001
0 2 A C -0.000022
0 2 A U -0.000022
0 2 A G 0.000025
0 2 A - -0.000022
0 2 C A -0.000022
0 2 C C -0.000004
0 2 C U 0.000029
0 2 C G -0.000020
0 2 C - -0.000022
0 2 U A -0.000572
0 2 U C 0.000001
0 2 U U 0.000865
0 2 U G -0.009439
0 2 U - 0.000004
0 2 G A 0.000022
0 2 G C 0.000023
0 2 G U 0.000002
0 2 G G -0.000056
0 2 G - -0.000022
0 2 - A -0.000004
0 2 - C 0.000006
0 2 - U -0.000022
0 2 - G -0.000019
0 2 - - -0.000012
0 3 A A 0.000048
0 3 A C -0.000036
0 3 A U -0.000015
0 3 A G -0.000015
0 3 A - 0.000048
0 3 C A -0.000014
0 3 C C 0.000050
0 3 C U 0.000048
0 3 C G -0.000035
0 3 C - 0.000048
0 3 U A -0.000006
0 3 U C -0.000059
0 3 U U -0.143985
0 3 U G -0.000020
0 3 U - -0.000003
0 3 G A 0.000046
0 3 G C 0.000031
0 3 G U 0.000017
0 3 G G 0.000048
0 3 G - -0.000035
0 3 - A -0.000033
0 3 - C 0.000048
0 3 - U 0.000053
0 3 - G -0.000036
0 3 - - 0.000046
0 4 A A -0.000012
0 4 A C -0.000012
0 4 A U 0.000004
0 4 A G 0.000011
0 4 A - 0.000006
0 4 C A 0.000007
0 4 C C 0.000018
0 4 C U 0.000004
0 4 C G -0.000035
0 4 C - -0.000012
0 4 U A -0.000010
0 4 U C 0.000290
0 4 U U 0.000037
0 4 U G -0.023715
0 4 U - 0.000010
0 4 G A 0.000021
0 4 G C 0.000023
0 4 G U 0.000003
0 4 G G -0.000034
0 4 G - -0.000012
0 4 - A 0.000019
0 4 - C 0.000004
0 4 - U -0.000012
0 4 - G 0.000039
0 4 - - -0.000009
0 5 A A 0.000045
0 5 A C -0.000017
0 5 A U 0.000029
0 5 A G 0.000029
0 5 A - 0.000029
0 5 C A 0.000029
0 5 C C -0.000028
0 5 C U -0.000040
0 5 C G 0.000029
0 5 C - 0.000029
0 5 U A 0.000031
0 5 U C -0.019157
0 5 U U -0.015192
0 5 U G 0.007867
0 5 U - -0.000010
0 5 G A -0.000025
0 5 G C 0.000032
0 5 G U -0.000018
0 5 G G -0.000040
0 5 G - 0.000029
0 5 - A 0.000029
0 5 - C -0.000006
0 5 - U 0.000029
0 5 - G 0.000046
0 5 - - -0.000050
0 6 A A 0.000043
0 6 A C 0.000049
0 6 A U 0.000008
0 6 A G 0.000018
0 6 A - 0.000036
0 6 C A 0.000025
0 6 C C -0.000003
0 6 C U 0.000004
0 6 C G -0.000043
0 6 C - 0.000018
0 6 U A 0.000005
0 6 U C -0.000321
0 6 U U -0.029284
0 6 U G 0.000632
0 6 U - 0.001677
0 6 G A -0.000029
0 6 G C -0.000011
0 6 G U -0.000007
0 6 G G 0.000018
0 6 G - 0.000039
0 6 - A 0.000018
0 6 - C 0.000002
0 6 - U -0.000021
0 6 - G 0.000038
0 6 - - 0.000025
0 7 A A -0.000043
0 7 A C -0.000049
0 7 A U 0.000025
0 7 A G 0.000015
0 7 A - 0.000018
0 7 C A -0.000014
0 7 C C 0.000014
0 7 C U -0.000020
0 7 C G 0.000033
0 7 C - 0.000035
0 7 U A -0.006185
0 7 U C 0.000194
0 7 U U -0.004819
0 7 U G 0.002325
0 7 U - -0.000032
0 7 G A -0.000051
0 7 G C -0.000010
0 7 G U -0.000028
0 7 G G -0.000048
0 7 G - 0.000033
0 7 - A 0.000028
0 7 - C -0.000009
0 7 - U 0.000030
0 7 - G -0.000023
0 7 - - 0.000031
0 8 A A 0.000040
0 8 A C 0.000003
0 8 A U -0.000020
0 8 A G -0.000000
0 8 A - -0.000034
0 8 C A -0.000007
0 8 C C -0.000010
0 8 C U -0.000019
0 8 C G -0.000016
0 8 C - -0.000020
0 8 U A -0.026238
0 8 U C 0.001760
0 8 U U 0.000344
0 8 U G -0.003282
0 8 U - 0.000692
0 8 G A -0.000013
0 8 G C -0.000016
0 8 G U -0.000011
0 8 G G -0.000045
0 8 G - -0.000015
0 8 - A -0.000040
0 8 - C 0.000021
0 8 - U -0.000034
0 8 - G -0.000036
0 8 - - -0.000029
0 9 A A 0.000003
0 9 A C 0.000025
0 9 A U 0.000003
0 9 A G 0.000045
0 9 A - -0.000032
0 9 C A 0.000037
0 9 C C 0.000032
0 9 C U 0.000016
0 9 C G -0.000003
0 9 C - -0.000032
0 9 U A -0.007933
0 9 U C 0.002930
0 9 U U 0.001483
0 9 U G -0.000939
0 9 U - 0.000018
0 9 G A -0.000033
0 9 G C -0.000040
0 9 G U 0.000021
0 9 G G -0.000052
0 9 G - -0.000032
0 9 - A 0.000030
0 9 - C 0.000035
0 9 - U 0.000003
0 9 - G -0.000043
0 9 - - -0.000002
0 10 A A 0.000014
0 10 A C -0.000007
0 10 A U -0.000040
0 10 A G -0.000003
0 10 A - 0.000014
0 10 C A -0.000038
0 10 C C 0.000035
0 10 C U 0.000032
0 10 C G -0.000035
0 10 C - 0.000032
0 10 U A -0.000038
0 10 U C 0.000988
0 10 U U -0.013110
0 10 U G 0.001280
0 10 U - 0.000035
0 10 G A -0.000035
0 10 G C -0.000054
0 10 G U 0.000031
0 10 G G 0.000028
0 10 G - 0.000031
0 10 - A 0.000014
0 10 - C 0.000047
0 10 - U 0.000019
0 10 - G -0.000028
0 10 - - 0.000030
0 11 A A 0.000025
0 11 A C 0.000015
0 11 A U 0.000046
0 11 A G -0.000023
0 11 A - -0.000036
0 11 C A -0.000039
0 11 C C 0.000045
0 11 C U -0.000009
0 11 C G 0.000020
0 11 C - -0.000048
0 11 U A 0.003064
0 11 U C 0.000756
0 11 U U 0.000076
0 11 U G -0.001914
0 11 U - -0.002073
0 11 G A 0.000050
0 11 G C -0.000048
0 11 G U -0.000031
0 11 G G -0.000048
0 11 G - -0.000045
0 11 - A 0.000033
0 11 - C -0.000049
0 11 - U 0.000030
0 11 - G 0.000006
0 11 - - -0.000051
0 12 A A -0.000028
0 12 A C -0.000047
0 12 A U -0.000047
0 12 A G -0.000047
0 12 A - 0.000005
0 12 C A -0.000003
0 12 C C -0.000047
0 12 C U -0.000024
0 12 C G -0.000047
0 12 C - 0.000003
0 12 U A -0.000491
0 12 U C -0.000045
0 12 U U 0.000019
0 12 U G 0.001005
0 12 U - -0.001115
0 12 G A -0.000040
0 12 G C -0.000040
0 12 G U -0.000047
0 12 G G -0.000039
0 12 G - 0.000012
0 12 - A 0.000027
0 12 - C -0.000047
0 12 - U -0.000026
0 12 - G -0.000047
0 12 - - -0.000016
0 13 A A -0.000037
0 13 A C -0.000035
0 13 A U -0.000035
0 13 A G -0.000035
0 13 A - 0.000019
0 13 C A -0.000037
0 13 C C -0.000035
0 13 C U -0.000020
0 13 C G -0.000035
0 13 C - -0.000054
0 13 U A -0.012988
0 13 U C 0.000214
0 13 U U 0.000042
0 13 U G 0.000712
0 13 U - -0.002746
0 13 G A -0.000048
0 13 G C -0.000023
0 13 G U 0.000033
0 13 G G 0.000011
0 13 G - -0.000025
0 13 - A 0.000016
0 13 - C -0.000035
0 13 - U -0.000021
0 13 - G -0.000035
0 13 - - -0.000006
0 14 A A -0.000000
0 14 A C 0.000050
0 14 A U -0.000000
0 14 A G 0.000037
0 14 A - 0.000050
0 14 C A -0.000031
0 14 C C -0.000044
0 14 C U 0.000008
0 14 C G 0.000026
0 14 C - 0.000043
0 14 U A 0.001336
0 14 U C -0.001101
0 14 U U -0.002236
0 14 U G 0.003043
0 14 U - -0.000057
0 14 G A 0.000013
0 14 G C 0.000019
0 14 G U 0.000003
0 14 G G -0.000029
0 14 G - 0.000040
0 14 - A -0.000016
0 14 - C 0.000032
0 14 - U 0.000019
0 14 - G 0.000007
0 14 - - 0.000009
0 15 A A -0.000004
0 15 A C -0.000016
0 15 A U 0.000046
0 15 A G 0.000029
0 15 A - -0.000005
0 15 C A 0.000026
0 15 C C -0.000034
0 15 C U -0.000045
0 15 C G 0.000043
0 15 C - 0.000013
0 15 U A -0.001051
0 15 U C -0.007920
0 15 U U -0.003053
0 15 U G 0.014870
0 15 U - -0.000017
0 15 G A 0.000041
0 15 G C -0.000037
0 15 G U -0.000049
0 15 G G 0.000018
0 15 G - -0.000011
0 15 - A 0.000047
0 15 - C 0.000005
0 15 - U 0.000046
0 15 - G -0.000005
0 15 - - 0.000013
0 16 A A -0.000007
0 16 A C 0.000024
0 16 A U -0.000023
0 16 A G -0.000048
0 16 A - -0.000033
0 16 C A -0.000027
0 16 C C -0.000007
0 16 C U -0.000033
0 16 C G 0.000043
0 16 C - 0.000005
0 16 U A -0.017219
0 16 U C -0.002207
0 16 U U 0.005105
0 16 U G 0.001203
0 16 U - -0.000188
0 16 G A 0.000033
0 16 G C 0.000045
0 16 G U 0.000004
0 16 G G 0.000023
0 16 G - -0.000011
0 16 - A -0.000001
0 16 - C 0.000039
0 16 - U -0.000048
0 16 - G -0.000028
0 16 - - -0.000013
0 17 A A 0.000037
0 17 A C 0.000019
0 17 A U -0.000005
0 17 A G -0.000005
0 17 A - 0.000024
0 17 C A 0.000009
0 17 C C 0.000040
0 17 C U 0.000020
0 17 C G 0.000026
0 17 C - -0.000005
0 17 U A -0.033797
0 17 U C -0.000035
0 17 U U -0.000036
0 17 U G -0.000013
0 17 U - -0.000017
0 17 G A 0.000026
0 17 G C -0.000005
0 17 G U 0.000019
0 17 G G 0.000027
0 17 G - -0.000005
0 17 - A 0.000028
0 17 - C -0.000005
0 17 - U 0.000028
0 17 - G 0.000025
0 17 - - 0.000020
0 18 A A -0.000029
0 18 A C -0.000029
0 18 A U 0.000005
0 18 A G 0.000009
0 18 A - -0.000029
0 18 C A -0.000029
0 18 C C -0.000029
0 18 C U -0.000006
0 18 C G 0.000008
0 18 C - -0.000029
0 18 U A 0.001431
0 18 U C 0.000076
0 18 U U -0.024017
0 18 U G -0.000008
0 18 U - -0.000055
0 18 G A -0.000029
0 18 G C -0.000012
0 18 G U -0.000003
0 18 G G -0.000002
0 18 G - -0.000007
0 18 - A -0.000007
0 18 - C -0.000029
0 18 - U -0.000040
0 18 - G -0.000029
0 18 - - -0.000018
0 19 A A 0.000030
0 19 A C -0.000028
0 19 A U -0.000028
0 19 A G -0.000010
0 19 A - -0.000013
0 19 C A 0.000027
0 19 C C -0.000028
0 19 C U -0.000008
0 19 C G -0.000028
0 19 C - -0.000028
0 19 U A -0.155083
0 19 U C 0.000044
0 19 U U 0.000051
0 19 U G 0.000002
0 19 U - 0.000213
0 19 G A -0.000006
0 19 G C -0.000028
0 19 G U 0.000009
0 19 G G -0.000028
0 19 G - -0.000011
0 19 - A 0.000006
0 19 - C -0.000028
0 19 - U -0.000028
0 19 - G -0.000028
0 19 - - -0.000028
0 20 A A -0.000002
0 20 A C 0.000011
0 20 A U 0.000011
0 20 A G 0.000011
0 20 A - 0.000011
0 20 C A -0.000035
0 20 C C 0.000011
0 20 C U 0.000026
0 20 C G -0.000036
0 20 C - 0.000024
0 20 U A -0.134183
0 20 U C -0.000036
0 20 U U -0.000019
0 20 U G 0.000008
0 20 U - 0.000776
0 20 G A -0.000040
0 20 G C 0.000011
0 20 G U 0.000045
0 20 G G 0.000011
0 20 G - 0.000011
0 20 - A 0.000043
0 20 - C 0.000011
0 20 - U 0.000011
0 20 - G 0.000011
0 20 - - 0.000010
0 21 A A -0.000008
0 21 A C -0.000025
0 21 A U 0.000010
0 21 A G 0.000010
0 21 A - -0.000008
0 21 C A -0.000032
0 21 C C 0.000019
0 21 C U 0.000007
0 21 C G 0.000041
0 21 C - -0.000008
0 21 U A -0.000461
0 21 U C 0.001362
0 21 U U -0.000003
0 21 U G -0.006184
0 21 U - -0.000026
0 21 G A -0.000049
0 21 G C 0.000003
0 21 G U 0.000015
0 21 G G -0.000003
0 21 G - -0.000008
0 21 - A 0.000016
0 21 - C -0.000043
0 21 - U -0.000008
0 21 - G 0.000011
0 21 - - 0.000018
0 22 A A 0.000043
0 22 A C -0.000038
0 22 A U -0.000040
0 22 A G -0.000019
0 22 A - 0.000010
0 22 C A 0.000047
0 22 C C -0.000027
0 22 C U -0.000003
0 22 C G -0.000022
0 22 C - 0.000010
0 22 U A 0.002006
0 22 U C 0.000485
0 22 U U -0.007948
0 22 U G 0.000412
0 22 U - 0.000372
0 22 G A 0.000010
0 22 G C 0.000001
0 22 G U 0.000003
0 22 G G 0.000044
0 22 G - 0.000043
0 22 - A 0.000050
0 22 - C -0.000002
0 22 - U -0.000040
0 22 - G -0.000002
0 22 - - 0.000032
0 23 A A -0.000034
0 23 A C -0.000020
0 23 A U -0.000047
0 23 A G 0.000003
0 23 A - -0.000034
0 23 C A -0.000034
0 23 C C -0.000002
0 23 C U -0.000002
0 23 C G -0.000016
0 23 C - -0.000017
0 23 U A 0.000045
0 23 U C -0.002661
0 23 U U -0.026194
0 23 U G 0.004155
0 23 U - -0.000014
0 23 G A -0.000016
0 23 G C -0.000027
0 23 G U -0.000034
0 23 G G -0.000015
0 23 G - -0.000034
0 23 - A -0.000034
0 23 - C -0.000044
0 23 - U -0.000018
0 23 - G 0.000002
0 23 - - -0.000008
0 24 A A -0.000034
0 24 A C 0.000014
0 24 A U 0.000000
0 24 A G -0.000021
0 24 A - -0.000049
0 24 C A 0.000027
0 24 C C -0.000037
0 24 C U -0.000048
0 24 C G -0.000014
0 24 C - -0.000032
0 24 U A -0.005147
0 24 U C 0.002436
0 24 U U -0.000173
0 24 U G -0.000012
0 24 U - 0.000316
0 24 G A -0.000011
0 24 G C -0.000044
0 24 G U -0.000038
0 24 G G 0.000048
0 24 G - -0.000026
0 24 - A -0.000015
0 24 - C 0.000003
0 24 - U 0.000008
0 24 - G 0.000027
0 24 - - -0.000028
0 25 A A -0.000027
0 25 A C -0.000033
0 25 A U -0.000033
0 25 A G -0.000012
0 25 A - -0.000017
0 25 C A 0.000002
0 25 C C -0.000007
0 25 C U -0.000018
0 25 C G -0.000016
0 25 C - -0.000033
0 25 U A -0.021175
0 25 U C 0.002290
0 25 U U -0.000020
0 25 U G -0.002916
0 25 U - 0.000627
0 25 G A 0.000004
0 25 G C -0.000014
0 25 G U 0.000017
0 25 G G 0.000010
0 25 G - 0.000001
0 25 - A -0.000033
0 25 - C -0.000026
0 25 - U -0.000033
0 25 - G 0.000049
0 25 - - -0.000003
0 26 A A 0.000044
0 26 A C 0.000026
0 26 A U 0.000026
0 26 A G -0.000016
0 26 A - 0.000026
0 26 C A -0.000008
0 26 C C 0.000026
0 26 C U 0.000026
0 26 C G -0.000016
0 26 C - -0.000043
0 26 U A -0.010758
0 26 U C 0.002001
0 26 U U 0.001378
0 26 U G -0.003084
0 26 U - 0.000008
0 26 G A -0.000026
0 26 G C -0.000035
0 26 G U -0.000039
0 26 G G -0.000038
0 26 G - 0.000042
0 26 - A 0.000026
0 26 - C -0.000032
0 26 - U 0.000026
0 26 - G -0.000002
0 26 - - 0.000034
0 27 A A 0.000018
0 27 A C 0.000018
0 27 A U 0.000018
0 27 A G -0.000006
0 27 A - 0.000018
0 27 C A 0.000031
0 27 C C 0.000018
0 27 C U 0.000018
0 27 C G -0.000001
0 27 C - 0.000018
0 27 U A 0.000742
0 27 U C 0.000004
0 27 U U 0.000014
0 27 U G -0.012953
0 27 U - -0.000018
0 27 G A 0.000039
0 27 G C 0.000018
0 27 G U 0.000018
0 27 G G -0.000057
0 27 G - 0.000031
0 27 - A 0.000018
0 27 - C 0.000034
0 27 - U -0.000031
0 27 - G -0.000015
0 27 - - 0.000031
0 28 A A 0.000043
0 28 A C 0.000050
0 28 A U 0.000023
0 28 A G -0.000014
0 28 A - 0.000023
0 28 C A -0.000048
0 28 C C -0.000041
0 28 C U 0.000042
0 28 C G -0.000003
0 28 C - 0.000045
0 28 U A 0.001439
0 28 U C 0.000441
0 28 U U -0.006743
0 28 U G 0.000817
0 28 U - -0.000045
0 28 G A -0.000039
0 28 G C 0.000013
0 28 G U -0.000000
0 28 G G 0.000000
0 28 G - -0.000043
0 28 - A 0.000031
0 28 - C 0.000015
0 28 - U 0.000021
0 28 - G -0.000015
0 28 - - 0.000037
0 29 A A -0.000047
0 29 A C 0.000046
0 29 A U 0.000026
0 29 A G -0.000026
0 29 A - 0.000002
0 29 C A -0.000028
0 29 C C 0.000002
0 29 C U 0.000002
0 29 C G 0.000048
0 29 C - 0.000002
0 29 U A -0.022623
0 29 U C 0.000004
0 29 U U -0.000020
0 29 U G 0.001387
0 29 U - -0.000059
0 29 G A 0.000022
0 29 G C -0.000045
0 29 G U 0.000039
0 29 G G -0.000010
0 29 G - 0.000017
0 29 - A 0.000049
0 29 - C 0.000040
0 29 - U 0.000002
0 29 - G 0.000002
0 29 - - 0.000014
0 30 A A 0.000050
0 30 A C 0.000045
0 30 A U 0.000021
0 30 A G -0.000047
0 30 A - 0.000030
0 30 C A 0.000050
0 30 C C 0.000037
0 30 C U 0.000050
0 30 C G 0.000024
0 30 C - 0.000050
0 30 U A -0.000356
0 30 U C 0.003591
0 30 U U -0.002104
0 30 U G -0.000728
0 30 U - 0.000899
0 30 G A -0.000000
0 30 G C 0.000024
0 30 G U -0.000034
0 30 G G -0.000052
0 30 G - -0.000032
0 30 - A 0.000030
0 30 - C -0.000037
0 30 - U -0.000013
0 30 - G 0.000032
0 30 - - 0.000033
0 31 A A -0.000006
0 31 A C -0.000029
0 31 A U -0.000015
0 31 A G -0.000018
0 31 A - 0.000037
0 31 C A -0.000014
0 31 C C 0.000045
0 31 C U -0.000025
0 31 C G -0.000025
0 31 C - -0.000012
0 31 U A -0.000093
0 31 U C 0.005974
0 31 U U -0.001543
0 31 U G 0.001387
0 31 U - -0.001745
0 31 G A 0.000004
0 31 G C 0.000031
0 31 G U 0.000025
0 31 G G 0.000039
0 31 G - -0.000003
0 31 - A 0.000037
0 31 - C -0.000028
0 31 - U -0.000002
0 31 - G 0.000021
0 31 - - -0.000018
0 32 A A 0.000037
0 32 A C 0.000043
0 32 A U 0.000010
0 32 A G 0.000038
0 32 A - 0.000030
0 32 C A -0.000006
0 32 C C -0.000012
0 32 C U -0.000004
0 32 C G 0.000017
0 32 C - -0.000036
0 32 U A -0.004191
0 32 U C 0.005834
0 32 U U -0.012579
0 32 U G 0.000239
0 32 U - 0.001190
0 32 G A -0.000036
0 32 G C 0.000009
0 32 G U 0.000041
0 32 G G 0.000014
0 32 G - 0.000015
0 32 - A 0.000017
0 32 - C 0.000038
0 32 - U -0.000011
0 32 - G 0.000032
0 32 - - 0.000043
0 33 A A -0.000019
0 33 A C -0.000032
0 33 A U -0.000047
0 33 A G 0.000035
0 33 A - -0.000046
0 33 C A 0.000038
0 33 C C 0.000006
0 33 C U 0.000031
0 33 C G -0.000039
0 33 C - -0.000007
0 33 U A -0.000207
0 33 U C 0.000164
0 33 U U -0.000919
0 33 U G -0.000911
0 33 U - 0.004164
0 33 G A -0.000027
0 33 G C -0.000034
0 33 G U 0.000042
0 33 G G 0.000013
0 33 G - -0.000044
0 33 - A 0.000028
0 33 - C -0.000023
0 33 - U -0.000025
0 33 - G -0.000025
0 33 - - 0.000024
0 34 A A 0.000024
0 34 A C 0.000015
0 34 A U -0.000042
0 34 A G -0.000004
0 34 A - -0.000011
0 34 C A 0.000040
0 34 C C 0.000034
0 34 C U -0.000001
0 34 C G -0.000033
0 34 C - 0.000031
0 34 U A 0.001039
0 34 U C 0.015618
0 34 U U -0.003330
0 34 U G -0.001281
0 34 U - -0.005673
0 34 G A -0.000009
0 34 G C 0.000048
0 34 G U -0.000008
0 34 G G 0.000025
0 34 G - 0.000045
0 34 - A 0.000030
0 34 - C 0.000042
0 34 - U 0.000040
0 34 - G 0.000014
0 34 - - -0.000018
0 35 A A -0.000007
0 35 A C -0.000015
0 35 A U -0.000001
0 35 A G -0.000040
0 35 A - 0.000010
0 35 C A 0.000020
0 35 C C 0.000001
0 35 C U -0.000014
0 35 C G -0.000007
0 35 C - 0.000009
0 35 U A -0.000762
0 35 U C -0.000164
0 35 U U -0.008669
0 35 U G 0.008039
0 35 U - -0.003031
0 35 G A -0.000025
0 35 G C -0.000046
0 35 G U -0.000002
0 35 G G -0.000020
0 35 G - 0.000028
0 35 - A 0.000021
0 35 - C 0.000043
0 35 - U 0.000022
0 35 - G -0.000043
0 35 - - 0.000007
0 36 A A -0.000027
0 36 A C -0.000002
0 36 A U 0.000022
0 36 A G -0.000049
0 36 A - -0.000014
0 36 C A -0.000051
0 36 C C -0.000039
0 36 C U -0.000003
0 36 C G -0.000030
0 36 C - 0.000006
0 36 U A -0.004772
0 36 U C 0.000701
0 36 U U -0.010394
0 36 U G 0.003436
0 36 U - -0.000273
0 36 G A -0.000033
0 36 G C -0.000025
0 36 G U -0.000010
0 36 G G 0.000036
0 36 G - 0.000019
0 36 - A -0.000017
0 36 - C 0.000017
0 36 - U -0.000038
0 36 - G -0.000021
0 36 - - -0.000046
0 37 A A 0.000023
0 37 A C -0.000036
0 37 A U 0.000017
0 37 A G -0.000003
0 37 A - 0.000034
0 37 C A 0.000007
0 37 C C -0.000013
0 37 C U 0.000043
0 37 C G -0.000001
0 37 C - 0.000013
0 37 U A -0.010944
0 37 U C 0.011946
0 37 U U -0.001264
0 37 U G -0.000013
0 37 U - -0.000231
0 37 G A -0.000044
0 37 G C -0.000018
0 37 G U -0.000023
0 37 G G -0.000051
0 37 G - 0.000041
0 37 - A -0.000029
0 37 - C -0.000004
0 37 - U 0.000000
0 37 - G 0.000004
0 37 - - -0.000016
0 38 A A 0.000008
0 38 A C -0.000015
0 38 A U -0.000050
0 38 A G 0.000030
0 38 A - -0.000039
0 38 C A -0.000031
0 38 C C 0.000001
0 38 C U 0.000016
0 38 C G -0.000048
0 38 C - 0.000022
0 38 U A 0.000543
0 38 U C -0.000780
0 38 U U -0.001586
0 38 U G -0.001508
0 38 U - 0.001462
0 38 G A -0.000046
0 38 G C 0.000021
0 38 G U -0.000013
0 38 G G -0.000006
0 38 G - -0.000043
0 38 - A 0.000001
0 38 - C -0.000043
0 38 - U -0.000029
0 38 - G 0.000039
0 38 - - 0.000050
0 39 A A 0.000032
0 39 A C -0.000025
0 39 A U 0.000033
0 39 A G -0.000047
0 39 A - -0.000031
0 39 C A -0.000034
0 39 C C -0.000030
0 39 C U 0.000029
0 39 C G 0.000046
0 39 C - -0.000013
0 39 U A -0.018905
0 39 U C 0.008769
0 39 U U -0.008270
0 39 U G 0.000810
0 39 U - 0.000843
0 39 G A 0.000024
0 39 G C 0.000041
0 39 G U -0.000046
0 39 G G -0.000055
0 39 G - 0.000014
0 39 - A -0.000023
0 39 - C -0.000039
0 39 - U -0.000014
0 39 - G -0.000009
0 39 - - 0.000026
0 40 A A 0.000009
0 40 A C -0.000043
0 40 A U -0.000023
0 40 A G 0.000039
0 40 A - 0.000049
0 40 C A -0.000009
0 40 C C -0.000039
0 40 C U -0.000037
0 40 C G 0.000037
0 40 C - 0.000027
0 40 U A -0.000707
0 40 U C 0.003830
0 40 U U -0.000568
0 40 U G 0.000522
0 40 U - -0.000565
0 40 G A 0.000004
0 40 G C 0.000046
0 40 G U -0.000039
0 40 G G -0.000033
0 40 G - -0.000019
0 40 - A 0.000003
0 40 - C -0.000001
0 40 - U 0.000027
0 40 - G -0.000038
0 40 - - 0.000011
0 41 A A -0.000002
0 41 A C 0.000005
0 41 A U 0.000046
0 41 A G 0.000006
0 41 A - -0.000026
0 41 C A -0.000019
0 41 C C -0.000039
0 41 C U -0.000018
0 41 C G -0.000023
0 41 C - 0.000023
0 41 U A -0.002236
0 41 U C -0.000557
0 41 U U -0.001482
0 41 U G 0.004542
0 41 U - 0.001639
0 41 G A -0.000038
0 41 G C 0.000001
0 41 G U 0.000007
0 41 G G 0.000018
0 41 G - -0.000031
0 41 - A 0.000046
0 41 - C -0.000009
0 41 - U -0.000039
0 41 - G -0.000048
0 41 - - 0.000023
0 42 A A -0.000036
0 42 A C -0.000019
0 42 A U 0.000008
0 42 A G -0.000020
0 42 A - -0.000036
0 42 C A -0.000036
0 42 C C -0.000005
0 42 C U -0.000037
0 42 C G -0.000036
0 42 C - -0.000036
0 42 U A -0.000025
0 42 U C 0.000225
0 42 U U -0.071498
0 42 U G -0.000001
0 42 U - -0.000078
0 42 G A -0.000019
0 42 G C 0.000014
0 42 G U -0.000027
0 42 G G 0.000014
0 42 G - -0.000023
0 42 - A -0.000036
0 42 - C -0.000036
0 42 - U -0.000019
0 42 - G 0.000016
0 42 - - -0.000036
0 43 A A 0.000039
0 43 A C 0.000036
0 43 A U 0.000050
0 43 A G 0.000009
0 43 A - 0.000017
0 43 C A 0.000046
0 43 C C 0.000031
0 43 C U 0.000046
0 43 C G 0.000014
0 43 C - 0.000017
0 43 U A -0.007177
0 43 U C 0.005286
0 43 U U -0.004386
0 43 U G 0.000667
0 43 U - 0.001166
0 43 G A 0.000008
0 43 G C -0.000013
0 43 G U 0.000035
0 43 G G 0.000013
0 43 G - 0.000038
0 43 - A -0.000025
0 43 - C 0.000031
0 43 - U -0.000018
0 43 - G 0.000018
0 43 - - 0.000017
0 44 A A 0.000013
0 44 A C 0.000002
0 44 A U -0.000016
0 44 A G 0.000002
0 44 A - 0.000003
0 44 C A 0.000021
0 44 C C 0.000022
0 44 C U -0.000016
0 44 C G -0.000016
0 44 C - -0.000016
0 44 U A -0.080239
0 44 U C -0.000045
0 44 U U -0.000023
0 44 U G -0.000032
0 44 U - 0.000023
0 44 G A 0.000018
0 44 G C 0.000002
0 44 G U 0.000019
0 44 G G 0.000002
0 44 G - -0.000016
0 44 - A 0.000028
0 44 - C 0.000001
0 44 - U 0.000002
0 44 - G -0.000016
0 44 - - -0.000016
0 45 A A 0.000030
0 45 A C -0.000002
0 45 A U 0.000030
0 45 A G 0.000030
0 45 A - 0.000030
0 45 C A 0.000047
0 45 C C 0.000022
0 45 C U -0.000026
0 45 C G 0.000030
0 45 C - 0.000030
0 45 U A 0.000033
0 45 U C -0.007962
0 45 U U 0.000494
0 45 U G 0.000044
0 45 U - 0.000022
0 45 G A 0.000030
0 45 G C -0.000034
0 45 G U 0.000041
0 45 G G 0.000030
0 45 G - 0.000030
0 45 - A -0.000033
0 45 - C -0.000021
0 45 - U 0.000030
0 45 - G 0.000044
0 45 - - 0.000040
0 46 A A -0.000025
0 46 A C -0.000025
0 46 A U -0.000025
0 46 A G 0.000035
0 46 A - -0.000025
0 46 C A 0.000004
0 46 C C -0.000025
0 46 C U -0.000025
0 46 C G -0.000027
0 46 C - -0.000025
0 46 U A 0.000036
0 46 U C 0.000031
0 46 U U 0.000004
0 46 U G -0.014166
0 46 U - 0.000034
0 46 G A -0.000025
0 46 G C -0.000025
0 46 G U -0.000007
0 46 G G -0.000022
0 46 G - -0.000025
0 46 - A -0.000025
0 46 - C -0.000025
0 46 - U -0.000025
0 46 - G -0.000042
0 46 - - -0.000025
0 47 A A 0.000049
0 47 A C 0.000017
0 47 A U 0.000033
0 47 A G -0.000008
0 47 A - -0.000049
0 47 C A -0.000050
0 47 C C 0.000033
0 47 C U 0.000017
0 47 C G 0.000029
0 47 C - 0.000017
0 47 U A -0.000487
0 47 U C 0.000006
0 47 U U 0.000355
0 47 U G -0.008219
0 47 U - -0.000014
0 47 G A -0.000004
0 47 G C 0.000034
0 47 G U 0.000034
0 47 G G 0.000009
0 47 G - 0.000017
0 47 - A -0.000049
0 47 - C 0.000028
0 47 - U 0.000017
0 47 - G 0.000041
0 47 - - 0.000017
0 48 A A -0.000008
0 48 A C 0.000033
0 48 A U -0.000024
0 48 A G -0.000024
0 48 A - -0.000024
0 48 C A -0.000007
0 48 C C -0.000007
0 48 C U -0.000024
0 48 C G -0.000006
0 48 C - -0.000024
0 48 U A -0.000025
0 48 U C -0.123369
0 48 U U -0.000006
0 48 U G 0.000034
0 48 U - -0.000038
0 48 G A -0.000024
0 48 G C -0.000042
0 48 G U -0.000011
0 48 G G -0.000007
0 48 G - -0.000024
0 48 - A -0.000024
0 48 - C -0.000014
0 48 - U -0.000024
0 48 - G -0.000024
0 48 - - -0.000024
0 49 A A 0.000040
0 49 A C -0.000045
0 49 A U 0.000023
0 49 A G 0.000034
0 49 A - -0.000034
0 49 C A 0.000040
0 49 C C -0.000026
0 49 C U 0.000004
0 49 C G -0.000018
0 49 C - 0.000006
0 49 U A -0.000365
0 49 U C 0.011100
0 49 U U -0.000658
0 49 U G 0.002765
0 49 U - -0.000700
0 49 G A 0.000030
0 49 G C -0.000036
0 49 G U 0.000006
0 49 G G -0.000001
0 49 G - 0.000020
0 49 - A -0.000012
0 49 - C -0.000022
0 49 - U -0.000045
0 49 - G 0.000008
0 49 - - -0.000045
0 50 A A -0.000011
0 50 A C 0.000013
0 50 A U 0.000022
0 50 A G 0.000028
0 50 A - -0.000008
0 50 C A -0.000001
0 50 C C 0.000002
0 50 C U 0.000039
0 50 C G -0.000017
0 50 C - -0.000008
0 50 U A -0.002822
0 50 U C 0.006988
0 50 U U 0.000239
0 50 U G -0.002263
0 50 U - -0.000053
0 50 G A 0.000010
0 50 G C -0.000044
0 50 G U 0.000046
0 50 G G -0.000047
0 50 G - -0.000050
0 50 - A 0.000044
0 50 - C 0.000046
0 50 - U 0.000049
0 50 - G 0.000005
0 50 - - 0.000039
0 51 A A 0.000004
0 51 A C -0.000049
0 51 A U 0.000048
0 51 A G -0.000014
0 51 A - -0.000020
0 51 C A -0.000050
0 51 C C -0.000033
0 51 C U 0.000047
0 51 C G -0.000038
0 51 C - -0.000003
0 51 U A -0.001204
0 51 U C 0.016156
0 51 U U -0.001950
0 51 U G -0.000061
0 51 U - -0.000071
0 51 G A -0.000048
0 51 G C -0.000004
0 51 G U 0.000023
0 51 G G 0.000035
0 51 G - -0.000016
0 51 - A -0.000037
0 51 - C -0.000034
0 51 - U 0.000000
0 51 - G -0.000050
0 51 - - -0.000020
0 52 A A 0.000031
0 52 A C -0.000010
0 52 A U -0.000015
0 52 A G -0.000037
0 52 A - 0.000037
0 52 C A -0.000043
0 52 C C 0.000042
0 52 C U -0.000005
0 52 C G 0.000008
0 52 C - 0.000040
0 52 U A -0.012254
0 52 U C 0.014156
0 52 U U -0.000193
0 52 U G -0.000816
0 52 U - 0.002838
0 52 G A -0.000047
0 52 G C 0.000009
0 52 G U -0.000027
0 52 G G -0.000039
0 52 G - 0.000029
0 52 - A 0.000044
0 52 - C -0.000004
0 52 - U 0.000031
0 52 - G -0.000009
0 52 - - 0.000029
0 53 A A -0.000019
0 53 A C 0.000002
0 53 A U 0.000006
0 53 A G 0.000007
0 53 A - 0.000000
0 53 C A -0.000023
0 53 C C 0.000022
0 53 C U 0.000008
0 53 C G -0.000024
0 53 C - 0.000004
0 53 U A 0.000868
0 53 U C 0.000960
0 53 U U -0.000091
0 53 U G -0.001116
0 53 U - -0.000083
0 53 G A -0.000016
0 53 G C -0.000018
0 53 G U 0.000043
0 53 G G -0.000013
0 53 G - 0.000037
0 53 - A 0.000032
0 53 - C -0.000018
0 53 - U 0.000027
0 53 - G 0.000006
0 53 - - 0.000011
0 54 A A -0.000007
0 54 A C 0.000045
0 54 A U -0.000009
0 54 A G -0.000001
0 54 A - -0.000009
0 54 C A -0.000020
0 54 C C -0.000001
0 54 C U 0.000049
0 54 C G -0.000021
0 54 C - 0.000008
0 54 U A 0.000374
0 54 U C 0.000020
0 54 U U -0.000711
0 54 U G 0.000163
0 54 U - 0.000544
0 54 G A -0.000054
0 54 G C 0.000050
0 54 G U 0.000020
0 54 G G 0.000041
0 54 G - 0.000032
0 54 - A 0.000025
0 54 - C -0.000009
0 54 - U 0.000049
0 54 - G -0.000009
0 54 - - -0.000009
0 55 A A -0.000012
0 55 A C -0.000026
0 55 A U -0.000029
0 55 A G -0.000029
0 55 A - -0.000026
0 55 C A -0.000053
0 55 C C -0.000010
0 55 C U -0.000036
0 55 C G 0.000049
0 55 C - -0.000029
0 55 U A -0.003336
0 55 U C -0.000262
0 55 U U -0.000150
0 55 U G -0.000015
0 55 U - 0.001407
0 55 G A 0.000017
0 55 G C 0.000036
0 55 G U 0.000001
0 55 G G 0.000036
0 55 G - 0.000001
0 55 - A -0.000013
0 55 - C -0.000006
0 55 - U -0.000026
0 55 - G -0.000029
0 55 - - -0.000029
0 56 A A -0.000049
0 56 A C 0.000001
0 56 A U -0.000037
0 56 A G -0.000047
0 56 A - 0.000046
0 56 C A -0.000006
0 56 C C 0.000011
0 56 C U 0.000032
0 56 C G 0.000034
0 56 C - 0.000046
0 56 U A 0.000238
0 56 U C -0.000145
0 56 U U -0.000223
0 56 U G -0.000508
0 56 U - 0.000594
0 56 G A -0.000041
0 56 G C -0.000049
0 56 G U -0.000035
0 56 G G -0.000006
0 56 G - -0.000004
0 56 - A 0.000035
0 56 - C 0.000039
0 56 - U -0.000023
0 56 - G 0.000044
0 56 - - -0.000004
0 57 A A -0.000027
0 57 A C 0.000006
0 57 A U 0.000028
0 57 A G 0.000041
0 57 A - 0.000039
0 57 C A 0.000019
0 57 C C -0.000046
0 57 C U -0.000049
0 57 C G -0.000047
0 57 C - -0.000032
0 57 U A 0.000673
0 57 U C 0.007316
0 57 U U -0.003547
0 57 U G 0.001717
0 57 U - -0.000359
0 57 G A -0.000033
0 57 G C -0.000019
0 57 G U -0.000035
0 57 G G 0.000042
0 57 G - -0.000013
0 57 - A 0.000021
0 57 - C -0.000011
0 57 - U 0.000039
0 57 - G 0.000006
0 57 - - 0.000010
0 58 A A 0.000029
0 58 A C 0.000036
0 58 A U -0.000045
0 58 A G 0.000012
0 58 A - 0.000008
0 58 C A -0.000040
0 58 C C 0.000036
0 58 C U -0.000034
0 58 C G -0.000006
0 58 C - 0.000036
0 58 U A -0.004148
0 58 U C 0.007780
0 58 U U 0.003509
0 58 U G -0.001435
0 58 U - -0.000084
0 58 G A 0.000034
0 58 G C -0.000038
0 58 G U -0.000004
0 58 G G 0.000013
0 58 G - 0.000012
0 58 - A -0.000042
0 58 - C 0.000007
0 58 - U -0.000010
0 58 - G 0.000035
0 58 - - 0.000036
0 59 A A 0.000016
0 59 A C -0.000027
0 59 A U 0.000000
0 59 A G 0.000042
0 59 A - 0.000048
0 59 C A -0.000029
0 59 C C -0.000049
0 59 C U -0.000050
0 59 C G -0.000050
0 59 C - 0.000020
0 59 U A -0.001286
0 59 U C 0.001044
0 59 U U 0.002215
0 59 U G -0.004755
0 59 U - 0.001670
0 59 G A -0.000048
0 59 G C -0.000050
0 59 G U 0.000000
0 59 G G -0.000002
0 59 G - -0.000016
0 59 - A -0.000031
0 59 - C 0.000000
0 59 - U 0.000036
0 59 - G -0.000035
0 59 - - 0.000000
0 60 A A -0.000010
0 60 A C -0.000027
0 60 A U 0.000040
0 60 A G 0.000008
0 60 A - -0.000045
0 60 C A -0.000029
0 60 C C 0.000005
0 60 C U -0.000031
0 60 C G 0.000013
0 60 C - -0.000045
0 60 U A -0.000968
0 60 U C 0.001274
0 60 U U -0.003209
0 60 U G 0.002726
0 60 U - -0.000848
0 60 G A 0.000034
0 60 G C -0.000016
0 60 G U -0.000026
0 60 G G 0.000033
0 60 G - -0.000047
0 60 - A -0.000045
0 60 - C 0.000029
0 60 - U -0.000022
0 60 - G 0.000027
0 60 - - -0.000048
0 61 A A 0.000041
0 61 A C -0.000009
0 61 A U 0.000001
0 61 A G -0.000050
0 61 A - -0.000032
0 61 C A 0.000026
0 61 C C -0.000050
0 61 C U -0.000041
0 61 C G -0.000041
0 61 C - -0.000028
0 61 U A -0.002349
0 61 U C 0.001997
0 61 U U -0.000922
0 61 U G 0.001671
0 61 U - -0.000933
0 61 G A -0.000054
0 61 G C -0.000047
0 61 G U -0.000036
0 61 G G 0.000000
0 61 G - 0.000016
0 61 - A -0.000035
0 61 - C -0.000050
0 61 - U 0.000037
0 61 - G 0.000037
0 61 - - 0.000037
0 62 A A 0.000023
0 62 A C 0.000022
0 62 A U -0.000006
0 62 A G 0.000034
0 62 A - -0.000030
0 62 C A 0.000008
0 62 C C 0.000011
0 62 C U -0.000025
0 62 C G 0.000047
0 62 C - -0.000012
0 62 U A -0.000861
0 62 U C 0.016375
0 62 U U -0.011193
0 62 U G 0.003023
0 62 U - 0.000398
0 62 G A 0.000035
0 62 G C -0.000013
0 62 G U -0.000034
0 62 G G 0.000041
0 62 G - -0.000019
0 62 - A 0.000043
0 62 - C -0.000004
0 62 - U -0.000026
0 62 - G -0.000015
0 62 - - -0.000019
0 63 A A -0.000043
0 63 A C -0.000036
0 63 A U -0.000040
0 63 A G -0.000035
0 63 A - -0.000024
0 63 C A -0.000014
0 63 C C 0.000006
0 63 C U 0.000041
0 63 C G -0.000014
0 63 C - -0.000042
0 63 U A -0.000099
0 63 U C -0.001178
0 63 U U -0.000112
0 63 U G 0.001508
0 63 U - -0.000676
0 63 G A 0.000037
0 63 G C -0.000008
0 63 G U 0.000031
0 63 G G -0.000046
0 63 G - -0.000043
0 63 - A -0.000043
0 63 - C 0.000002
0 63 - U -0.000047
0 63 - G -0.000048
0 63 - - -0.000043
0 64 A A -0.000041
0 64 A C 0.000024
0 64 A U -0.000029
0 64 A G -0.000026
0 64 A - -0.000041
0 64 C A -0.000015
0 64 C C 0.000038
0 64 C U -0.000016
0 64 C G -0.000005
0 64 C - -0.000010
0 64 U A 0.000294
0 64 U C 0.000033
0 64 U U -0.011635
0 64 U G 0.007535
0 64 U - -0.000077
0 64 G A 0.000005
0 64 G C 0.000037
0 64 G U 0.000046
0 64 G G 0.000029
0 64 G - -0.000010
0 64 - A 0.000003
0 64 - C -0.000041
0 64 - U 0.000042
0 64 - G 0.000013
0 64 - - -0.000001
0 65 A A -0.000021
0 65 A C 0.000000
0 65 A U -0.000003
0 65 A G -0.000037
0 65 A - 0.000029
0 65 C A -0.000020
0 65 C C 0.000011
0 65 C U -0.000003
0 65 C G -0.000006
0 65 C - -0.000002
0 65 U A -0.000028
0 65 U C 0.001538
0 65 U U -0.004423
0 65 U G 0.004950
0 65 U - -0.001391
0 65 G A 0.000029
0 65 G C -0.000056
0 65 G U 0.000020
0 65 G G -0.000034
0 65 G - 0.000043