# NB_STEPS 3000
# UP_FREQ 1000
# TEMP 1.000000
# LAMBDA 0.050000
# ID_THRES 1.000000
# ALPHA 1.298119
0 0 A A -0.002365
0 0 C C 0.000612
0 0 U U -0.001339
0 0 G G 0.000646
0 0 - - 0.015317
0 1 A A -0.000735
0 1 A C -0.000277
0 1 A U -0.000613
0 1 A G -0.000036
0 1 A - -0.000037
0 1 C A 0.000839
0 1 C C 0.000691
0 1 C U 0.000399
0 1 C G -0.000027
0 1 C - -0.000000
0 1 U A 0.000675
0 1 U C 0.000449
0 1 U U -0.006119
0 1 U G 0.001297
0 1 U - 0.000557
0 1 G A 0.001518
0 1 G C -0.063995
0 1 G U 0.000487
0 1 G G 0.000006
0 1 G - 0.000003
0 1 - A -0.000016
0 1 - C 0.000962
0 1 - U -0.000046
0 1 - G 0.000047
0 1 - - -0.000007
0 2 A A -0.001615
0 2 A C 0.000352
0 2 A U 0.000407
0 2 A G -0.000660
0 2 A - -0.000021
0 2 C A 0.000633
0 2 C C -0.000007
0 2 C U 0.000620
0 2 C G 0.002152
0 2 C - -0.000005
0 2 U A -0.003565
0 2 U C 0.000005
0 2 U U -0.000436
0 2 U G 0.001161
0 2 U - 0.000026
0 2 G A 0.000442
0 2 G C 0.001621
0 2 G U -0.000020
0 2 G G -0.058702
0 2 G - -0.000021
0 2 - A -0.000023
0 2 - C -0.000004
0 2 - U -0.000040
0 2 - G 0.001017
0 2 - - -0.000045
0 3 A A 0.000941
0 3 A C -0.000068
0 3 A U -0.035789
0 3 A G 0.000231
0 3 A - 0.000005
0 3 C A -0.000043
0 3 C C 0.000744
0 3 C U 0.001124
0 3 C G -0.000005
0 3 C - -0.000001
0 3 U A -0.000028
0 3 U C -0.000069
0 3 U U -0.005874
0 3 U G 0.000010
0 3 U - 0.000004
0 3 G A -0.000026
0 3 G C -0.000156
0 3 G U 0.000964
0 3 G G -0.000046
0 3 G - 0.000009
0 3 - A 0.000017
0 3 - C 0.000990
0 3 - U 0.000045
0 3 - G 0.000013
0 3 - - 0.000036
0 4 A A 0.000623
0 4 A C -0.004906
0 4 A U -0.000262
0 4 A G 0.000174
0 4 A - 0.000006
0 4 C A 0.000017
0 4 C C 0.000872
0 4 C U -0.000051
0 4 C G 0.000044
0 4 C - -0.000013
0 4 U A -0.000051
0 4 U C 0.000445
0 4 U U -0.001125
0 4 U G -0.000028
0 4 U - 0.000047
0 4 G A 0.001053
0 4 G C 0.006425
0 4 G U 0.000289
0 4 G G 0.000009
0 4 G - 0.000026
0 4 - A -0.000018
0 4 - C 0.000015
0 4 - U 0.000013
0 4 - G -0.000006
0 4 - - 0.001024
0 5 A A 0.000005
0 5 A C 0.003114
0 5 A U -0.008040
0 5 A G -0.000030
0 5 A - -0.000000
0 5 C A -0.000011
0 5 C C -0.000027
0 5 C U 0.000743
0 5 C G 0.000048
0 5 C - -0.000014
0 5 U A 0.000029
0 5 U C -0.000156
0 5 U U -0.006920
0 5 U G 0.000003
0 5 U - -0.000032
0 5 G A 0.000511
0 5 G C -0.010514
0 5 G U 0.003668
0 5 G G 0.000425
0 5 G - 0.000002
0 5 - A 0.000037
0 5 - C -0.000011
0 5 - U 0.000995
0 5 - G 0.000031
0 5 - - -0.000014
0 6 A A -0.000000
0 6 A C 0.000033
0 6 A U -0.002575
0 6 A G -0.000045
0 6 A - 0.000007
0 6 C A -0.000030
0 6 C C -0.000044
0 6 C U 0.003051
0 6 C G -0.000016
0 6 C - 0.000031
0 6 U A 0.000011
0 6 U C 0.000026
0 6 U U -0.025877
0 6 U G 0.000027
0 6 U - 0.000119
0 6 G A 0.000020
0 6 G C -0.000014
0 6 G U 0.000984
0 6 G G 0.000033
0 6 G - -0.000038
0 6 - A 0.000020
0 6 - C -0.000005
0 6 - U 0.025276
0 6 - G 0.001020
0 6 - - -0.000009
0 7 A A -0.000006
0 7 A C -0.002259
0 7 A U -0.000037
0 7 A G 0.000022
0 7 A - -0.000003
0 7 C A 0.000018
0 7 C C 0.000769
0 7 C U -0.000050
0 7 C G 0.000010
0 7 C - 0.000012
0 7 U A 0.000047
0 7 U C -0.000796
0 7 U U -0.000023
0 7 U G 0.000161
0 7 U - 0.000026
0 7 G A -0.000035
0 7 G C 0.000758
0 7 G U 0.000030
0 7 G G 0.000042
0 7 G - -0.000006
0 7 - A -0.000034
0 7 - C 0.020766
0 7 - U -0.000034
0 7 - G -0.000032
0 7 - - -0.000041
0 8 A A -0.003000
0 8 A C -0.000034
0 8 A U 0.000022
0 8 A G 0.000698
0 8 A - 0.000002
0 8 C A 0.002927
0 8 C C 0.000025
0 8 C U 0.000020
0 8 C G -0.000629
0 8 C - 0.000009
0 8 U A -0.091822
0 8 U C 0.000302
0 8 U U 0.000469
0 8 U G -0.001715
0 8 U - 0.000044
0 8 G A 0.001806
0 8 G C -0.002062
0 8 G U 0.000033
0 8 G G 0.000411
0 8 G - 0.001419
0 8 - A -0.000043
0 8 - C 0.000987
0 8 - U 0.000018
0 8 - G 0.000023
0 8 - - 0.000038
0 9 A A -0.000006
0 9 A C -0.000039
0 9 A U 0.000012
0 9 A G -0.002121
0 9 A - -0.000047
0 9 C A 0.000013
0 9 C C -0.000006
0 9 C U 0.000028
0 9 C G 0.000743
0 9 C - 0.000043
0 9 U A 0.000027
0 9 U C 0.000007
0 9 U U -0.000035
0 9 U G -0.000628
0 9 U - 0.000019
0 9 G A -0.000023
0 9 G C 0.000012
0 9 G U -0.000014
0 9 G G 0.000709
0 9 G - -0.000021
0 9 - A -0.000015
0 9 - C -0.000005
0 9 - U -0.000009
0 9 - G 0.008554
0 9 - - -0.000017
0 10 A A 0.000003
0 10 A C 0.000016
0 10 A U -0.000023
0 10 A G -0.002280
0 10 A - -0.000014
0 10 C A -0.000022
0 10 C C -0.000027
0 10 C U -0.000046
0 10 C G 0.000673
0 10 C - -0.000032
0 10 U A 0.000001
0 10 U C 0.000016
0 10 U U -0.000009
0 10 U G -0.002145
0 10 U - 0.000031
0 10 G A 0.000310
0 10 G C -0.000004
0 10 G U -0.000046
0 10 G G 0.000090
0 10 G - 0.000023
0 10 - A 0.000049
0 10 - C 0.000034
0 10 - U -0.000009
0 10 - G 0.016442
0 10 - - 0.000038
0 11 A A 0.000024
0 11 A C -0.000021
0 11 A U -0.000013
0 11 A G -0.002386
0 11 A - -0.000026
0 11 C A 0.000014
0 11 C C -0.000050
0 11 C U 0.000025
0 11 C G 0.000685
0 11 C - 0.000014
0 11 U A -0.000002
0 11 U C -0.000045
0 11 U U -0.000009
0 11 U G -0.000577
0 11 U - 0.000025
0 11 G A 0.000035
0 11 G C -0.000009
0 11 G U 0.000758
0 11 G G -0.000174
0 11 G - -0.000034
0 11 - A -0.000019
0 11 - C 0.000004
0 11 - U -0.000035
0 11 - G 0.021354
0 11 - - 0.000974
0 12 A A 0.000015
0 12 A C -0.003749
0 12 A U -0.000084
0 12 A G 0.001392
0 12 A - 0.000177
0 12 C A -0.000046
0 12 C C 0.001532
0 12 C U 0.000003
0 12 C G -0.000014
0 12 C - -0.000017
0 12 U A -0.000038
0 12 U C -0.030898
0 12 U U 0.000008
0 12 U G 0.000225
0 12 U - 0.001229
0 12 G A 0.000237
0 12 G C 0.004008
0 12 G U 0.000025
0 12 G G -0.017568
0 12 G - 0.000026
0 12 - A -0.000027
0 12 - C -0.000027
0 12 - U -0.000002
0 12 - G 0.000959
0 12 - - -0.000043
0 13 A A -0.001610
0 13 A C 0.001555
0 13 A U -0.000089
0 13 A G -0.000383
0 13 A - -0.000025
0 13 C A 0.001634
0 13 C C 0.000001
0 13 C U -0.000008
0 13 C G 0.000852
0 13 C - 0.000013
0 13 U A -0.004824
0 13 U C 0.000002
0 13 U U 0.000030
0 13 U G -0.000531
0 13 U - -0.000003
0 13 G A 0.001047
0 13 G C 0.000730
0 13 G U -0.080662
0 13 G G -0.000039
0 13 G - 0.000595
0 13 - A -0.000004
0 13 - C -0.000014
0 13 - U 0.000999
0 13 - G 0.000045
0 13 - - 0.000016
0 14 A A -0.000081
0 14 A C 0.001125
0 14 A U -0.000032
0 14 A G -0.003407
0 14 A - 0.000048
0 14 C A -0.000043
0 14 C C 0.000005
0 14 C U -0.000027
0 14 C G 0.004216
0 14 C - 0.000016
0 14 U A -0.000040
0 14 U C 0.000026
0 14 U U -0.000030
0 14 U G -0.007319
0 14 U - -0.000050
0 14 G A 0.000015
0 14 G C -0.002843
0 14 G U -0.000049
0 14 G G 0.000790
0 14 G - 0.000514
0 14 - A 0.000050
0 14 - C 0.000973
0 14 - U -0.000047
0 14 - G 0.000010
0 14 - - 0.000043
0 15 A A -0.000002
0 15 A C 0.000030
0 15 A U 0.000016
0 15 A G -0.002016
0 15 A - -0.000036
0 15 C A -0.000015
0 15 C C -0.000046
0 15 C U 0.000826
0 15 C G -0.000073
0 15 C - -0.000020
0 15 U A 0.000004
0 15 U C -0.000046
0 15 U U -0.000045
0 15 U G -0.002701
0 15 U - 0.000031
0 15 G A -0.000003
0 15 G C 0.000039
0 15 G U -0.000046
0 15 G G 0.000530
0 15 G - 0.000013
0 15 - A -0.000036
0 15 - C 0.000020
0 15 - U -0.000005
0 15 - G 0.015961
0 15 - - -0.000024
0 16 A A -0.000016
0 16 A C 0.000022
0 16 A U 0.000031
0 16 A G -0.007548
0 16 A - -0.000034
0 16 C A 0.000032
0 16 C C 0.000029
0 16 C U -0.000033
0 16 C G 0.000760
0 16 C - 0.000015
0 16 U A 0.000011
0 16 U C -0.000035
0 16 U U -0.000031
0 16 U G -0.000718
0 16 U - -0.000033
0 16 G A 0.000030
0 16 G C 0.000049
0 16 G U -0.000002
0 16 G G 0.000722
0 16 G - 0.000031
0 16 - A -0.000044
0 16 - C 0.000039
0 16 - U 0.000049
0 16 - G 0.022899
0 16 - - 0.000015
0 17 A A 0.000002
0 17 A C -0.000029
0 17 A U -0.001925
0 17 A G -0.000037
0 17 A - -0.000021
0 17 C A -0.000034
0 17 C C -0.000024
0 17 C U 0.000968
0 17 C G -0.000029
0 17 C - -0.000003
0 17 U A 0.000002
0 17 U C -0.000057
0 17 U U -0.000710
0 17 U G 0.000046
0 17 U - -0.000007
0 17 G A -0.000030
0 17 G C 0.000024
0 17 G U 0.001162
0 17 G G 0.000023
0 17 G - -0.000047
0 17 - A -0.000006
0 17 - C 0.000024
0 17 - U 0.001022
0 17 - G 0.000001
0 17 - - 0.000019
0 18 A A 0.000045
0 18 A C -0.000022
0 18 A U 0.000026
0 18 A G -0.002251
0 18 A - -0.000006
0 18 C A 0.000004
0 18 C C 0.000043
0 18 C U 0.000041
0 18 C G 0.000724
0 18 C - -0.000031
0 18 U A -0.000001
0 18 U C 0.000022
0 18 U U -0.000046
0 18 U G -0.003203
0 18 U - 0.000022
0 18 G A 0.000037
0 18 G C -0.000024
0 18 G U -0.000027
0 18 G G 0.000573
0 18 G - 0.000025
0 18 - A -0.000007
0 18 - C 0.000007
0 18 - U -0.000002
0 18 - G 0.014098
0 18 - - 0.000039
0 19 A A -0.001090
0 19 A C -0.000591
0 19 A U 0.000250
0 19 A G -0.000052
0 19 A - -0.000015
0 19 C A 0.001011
0 19 C C 0.000153
0 19 C U -0.000022
0 19 C G 0.000028
0 19 C - 0.000025
0 19 U A 0.000831
0 19 U C -0.000298
0 19 U U -0.000288
0 19 U G 0.000086
0 19 U - -0.000035
0 19 G A 0.000038
0 19 G C 0.000146
0 19 G U 0.000488
0 19 G G 0.000034
0 19 G - 0.000004
0 19 - A -0.000045
0 19 - C -0.000023
0 19 - U 0.000953
0 19 - G 0.000006
0 19 - - -0.000000
0 20 A A -0.002097
0 20 A C 0.000962
0 20 A U 0.000040
0 20 A G -0.000062
0 20 A - 0.000033
0 20 C A -0.000153
0 20 C C 0.000618
0 20 C U -0.000042
0 20 C G -0.000017
0 20 C - 0.000326
0 20 U A -0.009132
0 20 U C 0.000905
0 20 U U 0.000851
0 20 U G -0.000012
0 20 U - -0.000031
0 20 G A 0.000216
0 20 G C 0.000014
0 20 G U 0.000030
0 20 G G 0.000025
0 20 G - 0.000449
0 20 - A 0.001049
0 20 - C 0.000029
0 20 - U -0.000031
0 20 - G 0.000026
0 20 - - 0.000009
0 21 A A -0.001900
0 21 A C -0.000048
0 21 A U -0.000011
0 21 A G -0.000032
0 21 A - -0.000003
0 21 C A 0.000485
0 21 C C 0.000032
0 21 C U -0.000015
0 21 C G 0.000028
0 21 C - 0.000044
0 21 U A -0.008820
0 21 U C -0.000021
0 21 U U 0.000873
0 21 U G 0.000005
0 21 U - 0.000026
0 21 G A 0.000822
0 21 G C -0.000034
0 21 G U 0.000033
0 21 G G 0.000019
0 21 G - -0.000010
0 21 - A 0.005587
0 21 - C 0.000036
0 21 - U -0.000045
0 21 - G 0.000036
0 21 - - 0.000042
0 22 A A 0.000025
0 22 A C 0.000013
0 22 A U -0.003187
0 22 A G 0.001129
0 22 A - -0.000045
0 22 C A -0.000014
0 22 C C -0.000042
0 22 C U 0.001804
0 22 C G 0.000015
0 22 C - 0.000031
0 22 U A 0.000228
0 22 U C 0.000821
0 22 U U -0.002006
0 22 U G -0.000081
0 22 U - -0.000042
0 22 G A -0.000005
0 22 G C 0.000010
0 22 G U 0.000580
0 22 G G 0.001208
0 22 G - -0.000029
0 22 - A 0.000034
0 22 - C -0.000023
0 22 - U 0.000014
0 22 - G 0.000030
0 22 - - 0.001000
0 23 A A -0.000017
0 23 A C 0.000001
0 23 A U -0.001531
0 23 A G -0.000017
0 23 A - -0.000000
0 23 C A -0.000027
0 23 C C -0.000050
0 23 C U 0.000828
0 23 C G -0.000027
0 23 C - 0.000045
0 23 U A -0.000037
0 23 U C -0.000001
0 23 U U -0.000608
0 23 U G 0.000003
0 23 U - -0.000004
0 23 G A 0.000532
0 23 G C -0.000017
0 23 G U 0.000001
0 23 G G -0.000048
0 23 G - -0.000022
0 23 - A -0.000017
0 23 - C 0.000027
0 23 - U 0.007986
0 23 - G -0.000040
0 23 - - 0.000042
0 24 A A 0.000008
0 24 A C -0.002608
0 24 A U 0.000044
0 24 A G 0.000025
0 24 A - 0.000040
0 24 C A 0.000012
0 24 C C 0.000744
0 24 C U -0.000029
0 24 C G -0.000033
0 24 C - 0.000039
0 24 U A 0.000036
0 24 U C -0.002825
0 24 U U 0.000010
0 24 U G 0.000039
0 24 U - -0.000022
0 24 G A -0.000027
0 24 G C 0.000751
0 24 G U -0.000042
0 24 G G 0.000007
0 24 G - 0.000027
0 24 - A 0.000002
0 24 - C 0.018110
0 24 - U 0.000023
0 24 - G -0.000037
0 24 - - 0.000002
0 25 A A -0.000004
0 25 A C -0.001948
0 25 A U -0.000051
0 25 A G -0.000043
0 25 A - 0.000043
0 25 C A 0.001343
0 25 C C -0.000312
0 25 C U -0.000042
0 25 C G -0.000040
0 25 C - 0.000013
0 25 U A 0.000045
0 25 U C -0.005242
0 25 U U 0.000005
0 25 U G -0.000019
0 25 U - -0.000034
0 25 G A -0.000019
0 25 G C 0.000525
0 25 G U 0.000022
0 25 G G 0.000031
0 25 G - -0.000034
0 25 - A 0.000004
0 25 - C 0.023887
0 25 - U -0.000011
0 25 - G 0.000018
0 25 - - -0.000011
0 26 A A 0.000037
0 26 A C -0.004464
0 26 A U -0.000060
0 26 A G -0.000015
0 26 A - 0.000041
0 26 C A -0.000017
0 26 C C 0.003261
0 26 C U -0.000041
0 26 C G -0.000059
0 26 C - 0.000030
0 26 U A -0.000015
0 26 U C -0.034342
0 26 U U -0.000020
0 26 U G -0.000013
0 26 U - 0.000018
0 26 G A 0.000447
0 26 G C 0.000396
0 26 G U -0.000038
0 26 G G -0.000140
0 26 G - 0.000003
0 26 - A -0.000025
0 26 - C 0.000008
0 26 - U 0.000034
0 26 - G 0.000974
0 26 - - 0.000019
0 27 A A 0.000805
0 27 A C 0.000328
0 27 A U -0.000423
0 27 A G -0.000562
0 27 A - -0.000022
0 27 C A 0.000680
0 27 C C 0.000817
0 27 C U -0.000062
0 27 C G -0.000040
0 27 C - -0.000047
0 27 U A 0.002050
0 27 U C -0.000638
0 27 U U -0.000031
0 27 U G 0.000089
0 27 U - 0.000048
0 27 G A -0.003500
0 27 G C -0.000126
0 27 G U -0.000054
0 27 G G 0.002166
0 27 G - -0.000003
0 27 - A 0.001040
0 27 - C -0.000046
0 27 - U 0.000038
0 27 - G -0.000015
0 27 - - -0.000000
0 28 A A -0.003023
0 28 A C 0.000038
0 28 A U -0.000023
0 28 A G 0.000912
0 28 A - -0.000009
0 28 C A 0.001058
0 28 C C -0.000050
0 28 C U 0.000048
0 28 C G -0.000022
0 28 C - 0.000049
0 28 U A -0.008711
0 28 U C 0.001250
0 28 U U 0.000046
0 28 U G -0.000008
0 28 U - -0.000031
0 28 G A 0.000968
0 28 G C 0.000021
0 28 G U 0.000000
0 28 G G -0.000030
0 28 G - -0.000037
0 28 - A 0.017767
0 28 - C 0.000017
0 28 - U 0.000017
0 28 - G -0.000040
0 28 - - 0.000033
0 29 A A -0.000029
0 29 A C -0.002231
0 29 A U -0.000024
0 29 A G 0.000042
0 29 A - 0.000024
0 29 C A 0.000022
0 29 C C 0.000297
0 29 C U 0.000039
0 29 C G 0.000385
0 29 C - -0.000050
0 29 U A 0.000002
0 29 U C -0.000816
0 29 U U -0.000044
0 29 U G -0.000046
0 29 U - -0.000035
0 29 G A -0.000007
0 29 G C 0.000874
0 29 G U 0.000012
0 29 G G -0.000025
0 29 G - 0.000018
0 29 - A 0.000027
0 29 - C 0.010283
0 29 - U 0.000002
0 29 - G -0.000025
0 29 - - -0.000017
0 30 A A -0.000031
0 30 A C -0.002683
0 30 A U 0.000039
0 30 A G -0.000027
0 30 A - -0.000001
0 30 C A 0.000393
0 30 C C 0.000325
0 30 C U -0.000055
0 30 C G -0.000033
0 30 C - -0.000034
0 30 U A 0.000141
0 30 U C -0.003605
0 30 U U -0.000053
0 30 U G 0.000508
0 30 U - 0.000036
0 30 G A -0.000049
0 30 G C 0.000869
0 30 G U 0.000027
0 30 G G 0.000007
0 30 G - -0.000035
0 30 - A 0.000035
0 30 - C 0.007003
0 30 - U -0.000033
0 30 - G -0.000034
0 30 - - -0.000048
0 31 A A 0.000001
0 31 A C -0.000003
0 31 A U -0.000039
0 31 A G -0.002386
0 31 A - -0.000049
0 31 C A 0.000019
0 31 C C 0.000031
0 31 C U -0.000028
0 31 C G 0.000567
0 31 C - -0.000010
0 31 U A 0.000023
0 31 U C -0.000048
0 31 U U 0.000040
0 31 U G -0.002054
0 31 U - -0.000043
0 31 G A 0.000018
0 31 G C 0.000042
0 31 G U -0.000012
0 31 G G 0.000726
0 31 G - 0.000038
0 31 - A 0.000003
0 31 - C 0.000002
0 31 - U -0.000029
0 31 - G 0.017057
0 31 - - -0.000029
0 32 A A -0.000074
0 32 A C 0.000019
0 32 A U 0.000013
0 32 A G -0.001487
0 32 A - 0.000018
0 32 C A -0.000011
0 32 C C -0.000048
0 32 C U 0.000036
0 32 C G 0.000900
0 32 C - 0.000036
0 32 U A 0.000012
0 32 U C 0.000011
0 32 U U 0.000033
0 32 U G -0.001886
0 32 U - -0.000045
0 32 G A -0.000037
0 32 G C 0.000018
0 32 G U 0.000008
0 32 G G 0.000196
0 32 G - 0.000033
0 32 - A -0.000039
0 32 - C -0.000044
0 32 - U -0.000031
0 32 - G 0.005259
0 32 - - 0.000035
0 33 A A 0.000029
0 33 A C -0.001370
0 33 A U -0.000092
0 33 A G -0.000007
0 33 A - 0.000001
0 33 C A 0.000624
0 33 C C -0.000002
0 33 C U 0.000018
0 33 C G 0.000009
0 33 C - -0.000027
0 33 U A 0.000020
0 33 U C -0.000497
0 33 U U -0.000049
0 33 U G 0.000096
0 33 U - 0.000011
0 33 G A 0.000027
0 33 G C 0.000198
0 33 G U 0.000597
0 33 G G 0.000009
0 33 G - -0.000000
0 33 - A -0.000000
0 33 - C 0.000969
0 33 - U -0.000000
0 33 - G -0.000039
0 33 - - -0.000048
0 34 A A -0.000047
0 34 A C -0.000017
0 34 A U 0.000022
0 34 A G -0.002365
0 34 A - -0.000026
0 34 C A -0.000029
0 34 C C -0.000035
0 34 C U 0.000045
0 34 C G 0.000790
0 34 C - -0.000047
0 34 U A -0.000022
0 34 U C 0.000042
0 34 U U -0.000022
0 34 U G -0.001208
0 34 U - -0.000034
0 34 G A -0.000043
0 34 G C 0.000002
0 34 G U 0.000037
0 34 G G 0.000729
0 34 G - -0.000008
0 34 - A -0.000012
0 34 - C -0.000037
0 34 - U 0.000030
0 34 - G 0.018302
0 34 - - 0.000045
0 35 A A -0.000040
0 35 A C 0.000006
0 35 A U 0.000024
0 35 A G -0.002250
0 35 A - -0.000014
0 35 C A 0.000036
0 35 C C -0.000034
0 35 C U 0.000025
0 35 C G 0.000747
0 35 C - 0.000036
0 35 U A -0.000047
0 35 U C 0.000004
0 35 U U -0.000018
0 35 U G -0.004113
0 35 U - 0.000582
0 35 G A 0.000022
0 35 G C 0.000298
0 35 G U -0.000014
0 35 G G 0.000050
0 35 G - 0.000041
0 35 - A 0.000036
0 35 - C -0.000028
0 35 - U 0.000036
0 35 - G 0.023074
0 35 - - 0.000036
0 36 A A -0.000040
0 36 A C 0.000250
0 36 A U -0.003005
0 36 A G 0.000015
0 36 A - -0.000026
0 36 C A 0.000009
0 36 C C -0.000026
0 36 C U 0.000721
0 36 C G -0.000024
0 36 C - -0.000024
0 36 U A -0.000017
0 36 U C -0.000035
0 36 U U -0.000641
0 36 U G 0.000039
0 36 U - 0.000024
0 36 G A -0.000049
0 36 G C -0.000041
0 36 G U 0.000281
0 36 G G -0.000036
0 36 G - 0.000024
0 36 - A 0.000042
0 36 - C -0.000040
0 36 - U 0.015032
0 36 - G -0.000007
0 36 - - 0.000042
0 37 A A -0.026904
0 37 A C 0.000929
0 37 A U 0.000033
0 37 A G -0.000397
0 37 A - -0.000003
0 37 C A 0.001388
0 37 C C -0.000035
0 37 C U -0.000010
0 37 C G -0.000334
0 37 C - 0.000656
0 37 U A -0.004064
0 37 U C 0.000019
0 37 U U -0.000024
0 37 U G -0.000062
0 37 U - -0.000026
0 37 G A -0.000146
0 37 G C 0.000306
0 37 G U -0.000019
0 37 G G 0.000696
0 37 G - 0.000009
0 37 - A -0.000014
0 37 - C -0.000018
0 37 - U 0.001050
0 37 - G -0.000017
0 37 - - 0.000028
0 38 A A -0.000511
0 38 A C -0.000043
0 38 A U -0.000863
0 38 A G 0.000660
0 38 A - 0.000007
0 38 C A 0.000730
0 38 C C -0.000047
0 38 C U 0.000043
0 38 C G 0.000675
0 38 C - 0.000009
0 38 U A -0.009811
0 38 U C 0.000974
0 38 U U 0.000427
0 38 U G -0.000044
0 38 U - 0.000835
0 38 G A -0.000094
0 38 G C 0.001158
0 38 G U 0.000089
0 38 G G -0.000081
0 38 G - -0.000006
0 38 - A -0.000029
0 38 - C 0.001041
0 38 - U -0.000012
0 38 - G -0.000004
0 38 - - 0.000030
0 39 A A -0.002809
0 39 A C 0.000005
0 39 A U 0.000010
0 39 A G -0.000041
0 39 A - 0.000018
0 39 C A 0.000711
0 39 C C -0.000043
0 39 C U 0.000020
0 39 C G -0.000042
0 39 C - 0.000024
0 39 U A -0.005083
0 39 U C 0.000029
0 39 U U 0.000017
0 39 U G -0.000042
0 39 U - -0.000006
0 39 G A -0.000608
0 39 G C -0.000020
0 39 G U -0.000039
0 39 G G 0.000326
0 39 G - 0.000684
0 39 - A 0.002248
0 39 - C 0.000007
0 39 - U 0.000031
0 39 - G 0.000037
0 39 - - 0.000024
0 40 A A -0.000013
0 40 A C 0.000015
0 40 A U 0.000020
0 40 A G -0.001788
0 40 A - -0.000013
0 40 C A -0.000048
0 40 C C -0.000022
0 40 C U -0.000010
0 40 C G 0.000668
0 40 C - 0.000033
0 40 U A -0.000029
0 40 U C -0.000023
0 40 U U 0.000010
0 40 U G -0.004423
0 40 U - -0.000041
0 40 G A -0.000000
0 40 G C -0.000042
0 40 G U -0.000042
0 40 G G 0.000895
0 40 G - -0.000037
0 40 - A 0.000032
0 40 - C -0.000042
0 40 - U 0.000003
0 40 - G 0.002136
0 40 - - -0.000047
0 41 A A 0.000263
0 41 A C -0.000576
0 41 A U -0.001737
0 41 A G -0.000048
0 41 A - -0.000018
0 41 C A 0.000039
0 41 C C 0.000378
0 41 C U 0.000750
0 41 C G 0.000018
0 41 C - -0.000029
0 41 U A 0.000014
0 41 U C -0.003473
0 41 U U 0.000030
0 41 U G 0.000007
0 41 U - -0.000008
0 41 G A 0.000020
0 41 G C -0.000026
0 41 G U -0.000213
0 41 G G 0.000023
0 41 G - 0.000674
0 41 - A -0.000048
0 41 - C 0.000035
0 41 - U 0.001042
0 41 - G -0.000048
0 41 - - -0.000045
0 42 A A -0.000031
0 42 A C -0.002302
0 42 A U -0.000047
0 42 A G -0.000034
0 42 A - -0.000008
0 42 C A -0.000039
0 42 C C 0.000705
0 42 C U -0.000047
0 42 C G -0.000028
0 42 C - 0.000037
0 42 U A 0.000540
0 42 U C -0.003890
0 42 U U -0.000037
0 42 U G -0.000036
0 42 U - 0.000038
0 42 G A -0.000017
0 42 G C 0.000688
0 42 G U 0.000047
0 42 G G -0.000024
0 42 G - -0.000007
0 42 - A 0.000010
0 42 - C 0.021516
0 42 - U 0.000028
0 42 - G 0.000029
0 42 - - 0.000010
0 43 A A 0.000012
0 43 A C -0.002354
0 43 A U -0.000029
0 43 A G 0.000039
0 43 A - 0.000044
0 43 C A -0.000035
0 43 C C 0.000684
0 43 C U 0.000007
0 43 C G -0.000000
0 43 C - -0.000009
0 43 U A 0.000018
0 43 U C -0.001192
0 43 U U -0.000009
0 43 U G -0.000008
0 43 U - 0.000037
0 43 G A 0.000002
0 43 G C 0.000713
0 43 G U 0.000019
0 43 G G -0.000005
0 43 G - -0.000041
0 43 - A -0.000014
0 43 - C 0.018613
0 43 - U 0.000003
0 43 - G 0.000017
0 43 - - 0.000025
0 44 A A -0.000031
0 44 A C -0.000021
0 44 A U 0.000010
0 44 A G -0.001134
0 44 A - -0.000050
0 44 C A 0.000037
0 44 C C -0.000006
0 44 C U 0.000661
0 44 C G -0.000202
0 44 C - 0.000050
0 44 U A -0.000082
0 44 U C 0.000115
0 44 U U 0.000072
0 44 U G -0.001705
0 44 U - 0.001242
0 44 G A 0.000609
0 44 G C 0.000025
0 44 G U -0.000006
0 44 G G 0.000181
0 44 G - -0.000012
0 44 - A 0.000006
0 44 - C 0.000021
0 44 - U 0.000019
0 44 - G 0.000953
0 44 - - -0.000012
0 45 A A 0.000016
0 45 A C -0.000859
0 45 A U 0.000001
0 45 A G -0.000043
0 45 A - -0.000023
0 45 C A 0.000006
0 45 C C 0.000061
0 45 C U 0.000778
0 45 C G -0.000041
0 45 C - 0.000038
0 45 U A 0.000004
0 45 U C 0.000055
0 45 U U -0.000062
0 45 U G -0.000029
0 45 U - -0.000016
0 45 G A 0.000036
0 45 G C 0.000227
0 45 G U 0.000033
0 45 G G 0.000108
0 45 G - -0.000021
0 45 - A 0.000043
0 45 - C 0.001220
0 45 - U -0.000006
0 45 - G -0.000047
0 45 - - 0.000043
0 46 A A -0.000011
0 46 A C -0.000045
0 46 A U -0.000053
0 46 A G -0.001800
0 46 A - 0.000044
0 46 C A -0.000029
0 46 C C -0.000006
0 46 C U -0.000016
0 46 C G 0.000861
0 46 C - -0.000003
0 46 U A 0.000003
0 46 U C -0.000017
0 46 U U 0.000006
0 46 U G -0.000266
0 46 U - -0.000002
0 46 G A 0.000001
0 46 G C -0.000036
0 46 G U -0.000031
0 46 G G -0.000227
0 46 G - 0.000722
0 46 - A 0.000030
0 46 - C 0.000015
0 46 - U -0.000042
0 46 - G 0.015270
0 46 - - 0.000035
0 47 A A -0.002153
0 47 A C 0.000022
0 47 A U 0.000036
0 47 A G 0.000028
0 47 A - -0.000047
0 47 C A 0.000766
0 47 C C -0.000004
0 47 C U 0.000013
0 47 C G 0.000043
0 47 C - 0.000034
0 47 U A -0.004953
0 47 U C 0.000005
0 47 U U 0.000024
0 47 U G -0.000019
0 47 U - -0.000028
0 47 G A 0.000790
0 47 G C 0.000009
0 47 G U 0.000034
0 47 G G -0.000006
0 47 G - -0.000032
0 47 - A 0.008084
0 47 - C 0.000022
0 47 - U 0.000030
0 47 - G -0.000029
0 47 - - -0.000036
0 48 A A -0.000044
0 48 A C -0.000170
0 48 A U 0.000952
0 48 A G -0.002563
0 48 A - -0.000038
0 48 C A 0.000006
0 48 C C 0.000732
0 48 C U -0.000027
0 48 C G 0.000492
0 48 C - -0.000021
0 48 U A 0.000000
0 48 U C -0.001507
0 48 U U -0.000046
0 48 U G -0.000303
0 48 U - -0.000014
0 48 G A 0.000393
0 48 G C -0.001447
0 48 G U 0.001708
0 48 G G -0.000519
0 48 G - 0.000013
0 48 - A -0.000021
0 48 - C 0.001042
0 48 - U 0.000008
0 48 - G -0.000041
0 48 - - -0.000023
0 49 A A -0.000014
0 49 A C -0.002371
0 49 A U -0.000062
0 49 A G 0.000943
0 49 A - -0.000003
0 49 C A 0.000011
0 49 C C -0.000245
0 49 C U 0.000039
0 49 C G 0.000639
0 49 C - -0.000006
0 49 U A 0.000531
0 49 U C -0.001999
0 49 U U 0.000015
0 49 U G 0.001104
0 49 U - 0.000007
0 49 G A -0.000017
0 49 G C 0.000426
0 49 G U -0.000038
0 49 G G -0.000050
0 49 G - -0.000008
0 49 - A 0.000010
0 49 - C 0.011524
0 49 - U -0.000021
0 49 - G 0.000028
0 49 - - -0.000039
0 50 A A -0.000001
0 50 A C -0.000498
0 50 A U -0.000010
0 50 A G 0.000209
0 50 A - -0.000060
0 50 C A -0.000021
0 50 C C 0.001069
0 50 C U 0.000295
0 50 C G -0.000044
0 50 C - -0.000034
0 50 U A -0.000014
0 50 U C -0.000351
0 50 U U -0.000078
0 50 U G 0.000867
0 50 U - -0.000044
0 50 G A -0.000040
0 50 G C 0.002310
0 50 G U -0.000029
0 50 G G -0.000455
0 50 G - 0.000022
0 50 - A -0.000043
0 50 - C 0.001039
0 50 - U -0.000025
0 50 - G -0.000032
0 50 - - -0.000020
0 51 A A -0.000563
0 51 A C 0.000009
0 51 A U -0.000446
0 51 A G 0.000399
0 51 A - -0.000007
0 51 C A -0.000029
0 51 C C 0.000551
0 51 C U -0.000018
0 51 C G 0.000588
0 51 C - 0.000009
0 51 U A -0.000324
0 51 U C 0.000348
0 51 U U -0.000313
0 51 U G 0.001343
0 51 U - -0.000017
0 51 G A -0.000073
0 51 G C 0.000006
0 51 G U 0.000002
0 51 G G -0.001080
0 51 G - 0.000013
0 51 - A 0.000007
0 51 - C 0.001017
0 51 - U -0.000019
0 51 - G -0.000042
0 51 - - -0.000039
0 52 A A -0.000780
0 52 A C 0.000608
0 52 A U -0.001038
0 52 A G -0.000125
0 52 A - 0.000011
0 52 C A 0.000412
0 52 C C 0.000146
0 52 C U 0.001289
0 52 C G 0.000659
0 52 C - 0.000033
0 52 U A -0.000518
0 52 U C 0.000580
0 52 U U 0.000301
0 52 U G -0.000220
0 52 U - 0.000377
0 52 G A 0.000042
0 52 G C -0.050991
0 52 G U -0.000170
0 52 G G 0.000748
0 52 G - 0.000150
0 52 - A -0.000034
0 52 - C 0.000953
0 52 - U 0.000023
0 52 - G -0.000020
0 52 - - 0.000004
0 53 A A 0.000881
0 53 A C 0.001422
0 53 A U -0.000074
0 53 A G -0.000742
0 53 A - 0.000230
0 53 C A 0.000213
0 53 C C 0.000420
0 53 C U 0.000031
0 53 C G 0.000374
0 53 C - -0.000045
0 53 U A -0.000074
0 53 U C -0.000063
0 53 U U -0.000192
0 53 U G 0.000929
0 53 U - 0.001071
0 53 G A -0.000044
0 53 G C -0.009276
0 53 G U 0.000003
0 53 G G 0.002295
0 53 G - 0.000470
0 53 - A -0.000050
0 53 - C 0.000022
0 53 - U 0.000024
0 53 - G 0.001049
0 53 - - 0.000014
0 54 A A -0.000720
0 54 A C -0.000050
0 54 A U 0.000015
0 54 A G -0.001517
0 54 A - 0.000027
0 54 C A 0.000002
0 54 C C -0.000036
0 54 C U -0.000035
0 54 C G 0.000887
0 54 C - -0.000035
0 54 U A 0.001135
0 54 U C -0.000027
0 54 U U -0.000016
0 54 U G -0.000715
0 54 U - -0.000035
0 54 G A -0.000052
0 54 G C -0.000050
0 54 G U -0.000013
0 54 G G 0.001256
0 54 G - 0.000017
0 54 - A 0.000027
0 54 - C -0.000007
0 54 - U -0.000028
0 54 - G 0.000980
0 54 - - 0.000043
0 55 A A -0.000065
0 55 A C 0.000303
0 55 A U 0.000031
0 55 A G 0.000927
0 55 A - -0.000030
0 55 C A -0.000026
0 55 C C 0.001054
0 55 C U 0.000007
0 55 C G 0.000058
0 55 C - 0.000027
0 55 U A 0.000027
0 55 U C 0.000356
0 55 U U 0.000510
0 55 U G -0.001439
0 55 U - 0.000003
0 55 G A -0.000067
0 55 G C -0.000017
0 55 G U -0.000012
0 55 G G 0.000297
0 55 G - 0.000045
0 55 - A 0.000045
0 55 - C -0.000021
0 55 - U -0.000023
0 55 - G 0.001752
0 55 - - -0.000022
0 56 A A -0.000812
0 56 A C -0.001230
0 56 A U -0.000114
0 56 A G 0.000030
0 56 A - 0.000041
0 56 C A -0.000033
0 56 C C 0.000323
0 56 C U 0.000919
0 56 C G -0.000042
0 56 C - -0.000032
0 56 U A 0.000243
0 56 U C 0.000319
0 56 U U -0.000865
0 56 U G -0.000030
0 56 U - -0.000004
0 56 G A 0.001315
0 56 G C -0.001270
0 56 G U 0.000098
0 56 G G 0.000017
0 56 G - -0.000050
0 56 - A 0.000023
0 56 - C -0.000038
0 56 - U 0.000002
0 56 - G 0.001022
0 56 - - 0.000027
0 57 A A -0.001753
0 57 A C -0.000048
0 57 A U 0.000390
0 57 A G -0.000039
0 57 A - 0.000045
0 57 C A 0.001817
0 57 C C 0.000014
0 57 C U 0.000485
0 57 C G -0.000053
0 57 C - 0.000023
0 57 U A 0.000182
0 57 U C 0.001014
0 57 U U -0.000190
0 57 U G -0.000088
0 57 U - 0.000002
0 57 G A -0.000351
0 57 G C 0.000664
0 57 G U -0.008741
0 57 G G -0.000051
0 57 G - 0.000722
0 57 - A 0.000040
0 57 - C -0.000043
0 57 - U 0.000960
0 57 - G 0.000044
0 57 - - -0.000030
0 58 A A -0.000008
0 58 A C 0.000035
0 58 A U -0.000000
0 58 A G -0.002302
0 58 A - -0.000047
0 58 C A -0.000010
0 58 C C 0.000044
0 58 C U 0.000017
0 58 C G 0.000727
0 58 C - -0.000024
0 58 U A -0.000018
0 58 U C -0.000012
0 58 U U -0.000041
0 58 U G -0.005206
0 58 U - -0.000022
0 58 G A 0.000021
0 58 G C 0.000039
0 58 G U 0.000003
0 58 G G 0.000718
0 58 G - -0.000003
0 58 - A -0.000016
0 58 - C -0.000032
0 58 - U -0.000044
0 58 - G 0.023482
0 58 - - -0.000032
0 59 A A -0.002805
0 59 A C -0.000031
0 59 A U -0.000018
0 59 A G -0.000032
0 59 A - 0.000005
0 59 C A 0.000808
0 59 C C -0.000024
0 59 C U 0.000001
0 59 C G 0.000012
0 59 C - 0.000002
0 59 U A -0.000876
0 59 U C 0.000006
0 59 U U 0.000021
0 59 U G -0.000044
0 59 U - 0.000046
0 59 G A 0.000699
0 59 G C 0.000029
0 59 G U 0.000031
0 59 G G -0.000011
0 59 G - -0.000037
0 59 - A 0.019617
0 59 - C -0.000031
0 59 - U -0.000021
0 59 - G -0.000023
0 59 - - -0.000038
0 60 A A 0.000162
0 60 A C 0.000554
0 60 A U -0.003543
0 60 A G 0.000032
0 60 A - -0.000042
0 60 C A -0.000021
0 60 C C 0.000999
0 60 C U -0.000029
0 60 C G 0.000033
0 60 C - -0.000016
0 60 U A -0.000310
0 60 U C 0.003104
0 60 U U -0.017194
0 60 U G -0.000012
0 60 U - -0.000026
0 60 G A 0.000021
0 60 G C -0.005332
0 60 G U 0.001284
0 60 G G 0.000216
0 60 G - 0.000044
0 60 - A 0.000044
0 60 - C 0.001039
0 60 - U 0.000046
0 60 - G 0.000021
0 60 - - 0.000048
0 61 A A -0.000019
0 61 A C 0.000092
0 61 A U -0.002248
0 61 A G 0.000038
0 61 A - -0.000032
0 61 C A -0.000046
0 61 C C 0.000829
0 61 C U -0.000064
0 61 C G -0.000019
0 61 C - -0.000003
0 61 U A 0.000882
0 61 U C -0.000527
0 61 U U -0.002584
0 61 U G 0.000151
0 61 U - -0.000023
0 61 G A -0.000017
0 61 G C -0.000210
0 61 G U 0.000366
0 61 G G 0.000377
0 61 G - 0.000023
0 61 - A -0.000001
0 61 - C 0.001029
0 61 - U 0.000044
0 61 - G 0.000002
0 61 - - -0.000002
0 62 A A 0.000018
0 62 A C -0.023220
0 62 A U -0.001182
0 62 A G -0.000047
0 62 A - -0.000047
0 62 C A -0.000004
0 62 C C 0.000298
0 62 C U 0.000604
0 62 C G 0.000032
0 62 C - 0.000017
0 62 U A -0.000010
0 62 U C 0.000500
0 62 U U -0.004583
0 62 U G 0.000079
0 62 U - 0.000559
0 62 G A -0.003377
0 62 G C 0.001745
0 62 G U -0.000169
0 62 G G 0.000287
0 62 G - 0.000004
0 62 - A -0.000010
0 62 - C 0.000954
0 62 - U -0.000047
0 62 - G -0.000016
0 62 - - 0.000033
0 63 A A -0.000064
0 63 A C -0.000004
0 63 A U -0.000007
0 63 A G -0.002416
0 63 A - -0.000007
0 63 C A -0.000048
0 63 C C 0.000033
0 63 C U 0.000022
0 63 C G 0.001008
0 63 C - -0.000019
0 63 U A -0.000024
0 63 U C -0.000022
0 63 U U -0.000053
0 63 U G -0.001117
0 63 U - 0.000023
0 63 G A 0.000473
0 63 G C 0.000015
0 63 G U 0.000692
0 63 G G -0.001232
0 63 G - 0.000089
0 63 - A 0.000048
0 63 - C 0.000050
0 63 - U 0.000032
0 63 - G 0.005415
0 63 - - -0.000004
0 64 A A 0.000030
0 64 A C -0.000008
0 64 A U -0.000048
0 64 A G -0.002885
0 64 A - 0.000045
0 64 C A -0.000035
0 64 C C -0.000007
0 64 C U -0.000036
0 64 C G 0.000698
0 64 C - -0.000039
0 64 U A 0.000046
0 64 U C 0.000006
0 64 U U 0.000018
0 64 U G -0.000267
0 64 U - -0.000010
0 64 G A -0.000020
0 64 G C 0.000032
0 64 G U -0.000002
0 64 G G 0.000700
0 64 G - 0.000024
0 64 - A -0.000006
0 64 - C -0.000049
0 64 - U -0.000006
0 64 - G 0.005198
0 64 - - -0.000047
0 65 A A 0.000001
0 65 A C 0.000003
0 65 A U -0.002110
0 65 A G -0.000045
0 65 A - 0.000017
0 65 C A -0.000010
0 65 C C 0.000040
0 65 C U -0.000063
0 65 C G 0.000619
0 65 C - -0.000024
0 65 U A -0.000050
0 65 U C -0.000009
0 65 U U -0.003977
0 65 U G -0.000026
0 65 U - -0.000017
0 65 G A 0.000044
0 65 G C -0.000021
0 65 G U -0.000107
0 65 G G 0.000488
0 65 G - 0.000016
0 65 - A 0.000027
0 65 - C 0.000029
0 65 - U 0.010403
0 65 - G 0.000019