# NB_STEPS 3000
# UP_FREQ 1000
# TEMP 1.000000
# LAMBDA 0.050000
# ID_THRES 1.000000
# ALPHA 0.730791
0 0 A A -0.008791
0 0 C C 0.016791
0 0 U U 0.000888
0 0 G G -0.002469
0 0 - - 0.013099
0 1 A A -0.000024
0 1 A C -0.061504
0 1 A U -0.000010
0 1 A G -0.000047
0 1 A - 0.000727
0 1 C A -0.000012
0 1 C C 0.020064
0 1 C U 0.001253
0 1 C G -0.000001
0 1 C - -0.000019
0 1 U A 0.000009
0 1 U C 0.002393
0 1 U U -0.002191
0 1 U G 0.000523
0 1 U - 0.000028
0 1 G A -0.000042
0 1 G C -0.032582
0 1 G U -0.000101
0 1 G G -0.000034
0 1 G - 0.000420
0 1 - A 0.000015
0 1 - C 0.004315
0 1 - U -0.000014
0 1 - G -0.000032
0 1 - - -0.000007
0 2 A A -0.010433
0 2 A C 0.000011
0 2 A U -0.000038
0 2 A G 0.000649
0 2 A - 0.000032
0 2 C A 0.025185
0 2 C C -0.000021
0 2 C U 0.000049
0 2 C G 0.000031
0 2 C - -0.000007
0 2 U A 0.000978
0 2 U C 0.000049
0 2 U U 0.000019
0 2 U G 0.000014
0 2 U - -0.000021
0 2 G A -0.013186
0 2 G C 0.000013
0 2 G U -0.000018
0 2 G G -0.000009
0 2 G - -0.000025
0 2 - A 0.011517
0 2 - C -0.000021
0 2 - U -0.000004
0 2 - G 0.000014
0 2 - - 0.000031
0 3 A A -0.000014
0 3 A C -0.000041
0 3 A U -0.022612
0 3 A G 0.000036
0 3 A - 0.000002
0 3 C A 0.000860
0 3 C C 0.000033
0 3 C U 0.020945
0 3 C G 0.000033
0 3 C - 0.000033
0 3 U A 0.000005
0 3 U C 0.000825
0 3 U U -0.000117
0 3 U G -0.000001
0 3 U - -0.000031
0 3 G A -0.000024
0 3 G C 0.000038
0 3 G U -0.005336
0 3 G G 0.000040
0 3 G - -0.000024
0 3 - A 0.000033
0 3 - C 0.000033
0 3 - U 0.017610
0 3 - G 0.000033
0 3 - - -0.000034
0 4 A A 0.000021
0 4 A C -0.007644
0 4 A U 0.000021
0 4 A G 0.001033
0 4 A - 0.000017
0 4 C A -0.000017
0 4 C C 0.000059
0 4 C U 0.000458
0 4 C G 0.001402
0 4 C - -0.000001
0 4 U A 0.000809
0 4 U C -0.262687
0 4 U U -0.000013
0 4 U G 0.000002
0 4 U - 0.000036
0 4 G A -0.002245
0 4 G C 0.056951
0 4 G U -0.000607
0 4 G G -0.000014
0 4 G - 0.000173
0 4 - A -0.000005
0 4 - C 0.000047
0 4 - U -0.000002
0 4 - G 0.000009
0 4 - - -0.000037
0 5 A A -0.015676
0 5 A C 0.000019
0 5 A U -0.000001
0 5 A G 0.000034
0 5 A - -0.000008
0 5 C A 0.002872
0 5 C C 0.000030
0 5 C U 0.000042
0 5 C G 0.000919
0 5 C - -0.000032
0 5 U A -0.063167
0 5 U C -0.000048
0 5 U U 0.000516
0 5 U G -0.000048
0 5 U - -0.000024
0 5 G A -0.002515
0 5 G C 0.001186
0 5 G U -0.001996
0 5 G G -0.000081
0 5 G - 0.002877
0 5 - A 0.002428
0 5 - C -0.000006
0 5 - U 0.000031
0 5 - G 0.000046
0 5 - - -0.000017
0 6 A A -0.004935
0 6 A C -0.000050
0 6 A U 0.000674
0 6 A G -0.000072
0 6 A - 0.000116
0 6 C A 0.002898
0 6 C C 0.000004
0 6 C U -0.000031
0 6 C G -0.000021
0 6 C - 0.000015
0 6 U A 0.001179
0 6 U C 0.000479
0 6 U U 0.000051
0 6 U G 0.000010
0 6 U - 0.000030
0 6 G A -0.097540
0 6 G C 0.000025
0 6 G U 0.000007
0 6 G G 0.000396
0 6 G - 0.001995
0 6 - A 0.000027
0 6 - C 0.000016
0 6 - U 0.000030
0 6 - G 0.000047
0 6 - - 0.000030
0 7 A A 0.000034
0 7 A C -0.000015
0 7 A U -0.000004
0 7 A G -0.009302
0 7 A - 0.000016
0 7 C A 0.000009
0 7 C C -0.000010
0 7 C U -0.000010
0 7 C G 0.020893
0 7 C - -0.000010
0 7 U A 0.000044
0 7 U C 0.000005
0 7 U U 0.000025
0 7 U G 0.000955
0 7 U - 0.000043
0 7 G A 0.000040
0 7 G C 0.000020
0 7 G U 0.000014
0 7 G G -0.013566
0 7 G - -0.000030
0 7 - A 0.000027
0 7 - C 0.000030
0 7 - U 0.000018
0 7 - G 0.012966
0 7 - - 0.000028
0 8 A A -0.015123
0 8 A C 0.000002
0 8 A U -0.000003
0 8 A G -0.000023
0 8 A - -0.000007
0 8 C A 0.023149
0 8 C C -0.000041
0 8 C U -0.000048
0 8 C G -0.000048
0 8 C - -0.000048
0 8 U A 0.001037
0 8 U C -0.000026
0 8 U U 0.000013
0 8 U G -0.000040
0 8 U - -0.000026
0 8 G A -0.028340
0 8 G C -0.000042
0 8 G U 0.000049
0 8 G G 0.000043
0 8 G - -0.000042
0 8 - A 0.014491
0 8 - C -0.000048
0 8 - U -0.000048
0 8 - G 0.000013
0 8 - - -0.000048
0 9 A A 0.000597
0 9 A C 0.000032
0 9 A U -0.000038
0 9 A G -0.050805
0 9 A - 0.000004
0 9 C A -0.000035
0 9 C C 0.000895
0 9 C U 0.000003
0 9 C G 0.002876
0 9 C - -0.000002
0 9 U A -0.002536
0 9 U C 0.000021
0 9 U U 0.000009
0 9 U G 0.001899
0 9 U - 0.000003
0 9 G A -0.000026
0 9 G C 0.000019
0 9 G U -0.000008
0 9 G G -0.020439
0 9 G - -0.000001
0 9 - A 0.000006
0 9 - C -0.000034
0 9 - U -0.000002
0 9 - G 0.001491
0 9 - - 0.000039
0 10 A A 0.000408
0 10 A C -0.000054
0 10 A U -0.000069
0 10 A G 0.000043
0 10 A - -0.000146
0 10 C A 0.000911
0 10 C C 0.000393
0 10 C U 0.000293
0 10 C G -0.000016
0 10 C - -0.000034
0 10 U A 0.001647
0 10 U C -0.000067
0 10 U U -0.000078
0 10 U G -0.000026
0 10 U - 0.000526
0 10 G A -0.000456
0 10 G C 0.000783
0 10 G U -0.001008
0 10 G G 0.000693
0 10 G - -0.001866
0 10 - A -0.000019
0 10 - C 0.000007
0 10 - U -0.000022
0 10 - G 0.000011
0 10 - - -0.000046
0 11 A A 0.000568
0 11 A C 0.000584
0 11 A U -0.000076
0 11 A G -0.001610
0 11 A - 0.000035
0 11 C A 0.000800
0 11 C C 0.000857
0 11 C U -0.000001
0 11 C G 0.000324
0 11 C - 0.000047
0 11 U A 0.001686
0 11 U C 0.000387
0 11 U U -0.000248
0 11 U G 0.000275
0 11 U - -0.000017
0 11 G A -0.002182
0 11 G C 0.000679
0 11 G U -0.002459
0 11 G G 0.000904
0 11 G - 0.000872
0 11 - A -0.000002
0 11 - C -0.000000
0 11 - U -0.000036
0 11 - G 0.000044
0 11 - - -0.000012
0 12 A A -0.000062
0 12 A C -0.000000
0 12 A U 0.000430
0 12 A G -0.003137
0 12 A - -0.000025
0 12 C A 0.000030
0 12 C C 0.000933
0 12 C U -0.000019
0 12 C G 0.001867
0 12 C - -0.000025
0 12 U A 0.001331
0 12 U C -0.000013
0 12 U U -0.000045
0 12 U G 0.001295
0 12 U - -0.000029
0 12 G A -0.000129
0 12 G C -0.000214
0 12 G U -0.000052
0 12 G G -0.009727
0 12 G - 0.000024
0 12 - A 0.000036
0 12 - C -0.000049
0 12 - U -0.000036
0 12 - G 0.000048
0 12 - - -0.000004
0 13 A A -0.000067
0 13 A C -0.000012
0 13 A U 0.000002
0 13 A G 0.000369
0 13 A - -0.000048
0 13 C A 0.000024
0 13 C C -0.000050
0 13 C U 0.000015
0 13 C G 0.003968
0 13 C - 0.000005
0 13 U A 0.002098
0 13 U C 0.000562
0 13 U U -0.000030
0 13 U G 0.000611
0 13 U - -0.000017
0 13 G A -0.000099
0 13 G C -0.000199
0 13 G U -0.000021
0 13 G G -0.012726
0 13 G - 0.000506
0 13 - A 0.000034
0 13 - C -0.000013
0 13 - U 0.000022
0 13 - G -0.000019
0 13 - - 0.000006
0 14 A A 0.000539
0 14 A C 0.001008
0 14 A U -0.004851
0 14 A G -0.000079
0 14 A - -0.000064
0 14 C A 0.001392
0 14 C C -0.000037
0 14 C U 0.000283
0 14 C G -0.000004
0 14 C - 0.000286
0 14 U A 0.000993
0 14 U C 0.000035
0 14 U U 0.000661
0 14 U G 0.000663
0 14 U - 0.000011
0 14 G A -0.000139
0 14 G C 0.000008
0 14 G U -0.000407
0 14 G G -0.000369
0 14 G - -0.043826
0 14 - A 0.000001
0 14 - C 0.000008
0 14 - U -0.000026
0 14 - G -0.000040
0 14 - - -0.000009
0 15 A A -0.105740
0 15 A C -0.000017
0 15 A U 0.000006
0 15 A G 0.001009
0 15 A - 0.000698
0 15 C A 0.001967
0 15 C C 0.000404
0 15 C U -0.000020
0 15 C G -0.000036
0 15 C - -0.000029
0 15 U A 0.002509
0 15 U C -0.000025
0 15 U U -0.000029
0 15 U G 0.000011
0 15 U - -0.000022
0 15 G A -0.002219
0 15 G C -0.000031
0 15 G U -0.000592
0 15 G G 0.001722
0 15 G - 0.002042
0 15 - A 0.000007
0 15 - C -0.000029
0 15 - U 0.000016
0 15 - G -0.000011
0 15 - - 0.000043
0 16 A A 0.001029
0 16 A C -0.001034
0 16 A U -0.000077
0 16 A G -0.000012
0 16 A - 0.000420
0 16 C A 0.001198
0 16 C C -0.000034
0 16 C U -0.000009
0 16 C G 0.000009
0 16 C - 0.000760
0 16 U A 0.000919
0 16 U C 0.000734
0 16 U U -0.000027
0 16 U G 0.000447
0 16 U - 0.000012
0 16 G A -0.000368
0 16 G C 0.000494
0 16 G U -0.000852
0 16 G G -0.000036
0 16 G - -0.000183
0 16 - A -0.000007
0 16 - C -0.000031
0 16 - U 0.000003
0 16 - G 0.000017
0 16 - - -0.000002
0 17 A A 0.000005
0 17 A C 0.000837
0 17 A U -0.000074
0 17 A G -0.000082
0 17 A - 0.000037
0 17 C A 0.000021
0 17 C C 0.002993
0 17 C U 0.000880
0 17 C G -0.000027
0 17 C - -0.000043
0 17 U A 0.000065
0 17 U C 0.001496
0 17 U U 0.000036
0 17 U G -0.000006
0 17 U - 0.000045
0 17 G A -0.000070
0 17 G C -0.035673
0 17 G U -0.000069
0 17 G G -0.000166
0 17 G - 0.000160
0 17 - A -0.000036
0 17 - C -0.000017
0 17 - U -0.000023
0 17 - G -0.000015
0 17 - - -0.000031
0 18 A A -0.000045
0 18 A C -0.001827
0 18 A U -0.000089
0 18 A G 0.001644
0 18 A - 0.000005
0 18 C A 0.000041
0 18 C C 0.001821
0 18 C U -0.000023
0 18 C G 0.000932
0 18 C - -0.000050
0 18 U A -0.000047
0 18 U C 0.001461
0 18 U U 0.000349
0 18 U G 0.000176
0 18 U - -0.000002
0 18 G A -0.000056
0 18 G C -0.004784
0 18 G U 0.000527
0 18 G G -0.000285
0 18 G - -0.000037
0 18 - A -0.000028
0 18 - C -0.000014
0 18 - U 0.000038
0 18 - G 0.000042
0 18 - - 0.000039
0 19 A A -0.000116
0 19 A C -0.000307
0 19 A U 0.000885
0 19 A G 0.000021
0 19 A - -0.000028
0 19 C A -0.000027
0 19 C C -0.000035
0 19 C U 0.002310
0 19 C G 0.000018
0 19 C - -0.000042
0 19 U A -0.000160
0 19 U C -0.000007
0 19 U U 0.002711
0 19 U G 0.000427
0 19 U - -0.000053
0 19 G A -0.000661
0 19 G C 0.000489
0 19 G U -0.001907
0 19 G G 0.001195
0 19 G - -0.000032
0 19 - A -0.000049
0 19 - C -0.000006
0 19 - U 0.000020
0 19 - G 0.000043
0 19 - - 0.000008
0 20 A A -0.000025
0 20 A C -0.107885
0 20 A U 0.000561
0 20 A G -0.000043
0 20 A - 0.000040
0 20 C A 0.000877
0 20 C C 0.002963
0 20 C U -0.000012
0 20 C G 0.000025
0 20 C - -0.000030
0 20 U A -0.000016
0 20 U C 0.002372
0 20 U U -0.000636
0 20 U G 0.000049
0 20 U - 0.000021
0 20 G A -0.000032
0 20 G C -0.003408
0 20 G U -0.001270
0 20 G G -0.000001
0 20 G - 0.000486
0 20 - A 0.000041
0 20 - C 0.001162
0 20 - U 0.000027
0 20 - G -0.000044
0 20 - - 0.000009
0 21 A A 0.000080
0 21 A C 0.000011
0 21 A U -0.000013
0 21 A G -0.001312
0 21 A - 0.000316
0 21 C A -0.000007
0 21 C C -0.000008
0 21 C U 0.000307
0 21 C G 0.002842
0 21 C - -0.000014
0 21 U A -0.004067
0 21 U C -0.000010
0 21 U U -0.000036
0 21 U G 0.004013
0 21 U - 0.000506
0 21 G A 0.003272
0 21 G C 0.000104
0 21 G U -0.000077
0 21 G G -0.034817
0 21 G - 0.000019
0 21 - A 0.000020
0 21 - C 0.000010
0 21 - U -0.000012
0 21 - G 0.000032
0 21 - - 0.000001
0 22 A A -0.000014
0 22 A C -0.034603
0 22 A U 0.000042
0 22 A G 0.001079
0 22 A - 0.000042
0 22 C A 0.000046
0 22 C C 0.001942
0 22 C U 0.000006
0 22 C G 0.000252
0 22 C - 0.000008
0 22 U A -0.000009
0 22 U C 0.000419
0 22 U U 0.000005
0 22 U G 0.000461
0 22 U - -0.000019
0 22 G A 0.000011
0 22 G C -0.001210
0 22 G U 0.000043
0 22 G G -0.001290
0 22 G - 0.000044
0 22 - A 0.000006
0 22 - C -0.000032
0 22 - U 0.000046
0 22 - G 0.000025
0 22 - - -0.000025
0 23 A A 0.000031
0 23 A C -0.017614
0 23 A U 0.000030
0 23 A G 0.000031
0 23 A - 0.000026
0 23 C A -0.000007
0 23 C C 0.015717
0 23 C U 0.000021
0 23 C G -0.000025
0 23 C - 0.000047
0 23 U A 0.000023
0 23 U C 0.000965
0 23 U U 0.000007
0 23 U G 0.000023
0 23 U - 0.000047
0 23 G A -0.000034
0 23 G C -0.002852
0 23 G U -0.000043
0 23 G G -0.000029
0 23 G - -0.000038
0 23 - A -0.000031
0 23 - C 0.015196
0 23 - U -0.000019
0 23 - G -0.000021
0 23 - - 0.000047
0 24 A A -0.025371
0 24 A C 0.000049
0 24 A U -0.000004
0 24 A G 0.000014
0 24 A - 0.000030
0 24 C A 0.018780
0 24 C C -0.000016
0 24 C U 0.000020
0 24 C G -0.000035
0 24 C - -0.000035
0 24 U A 0.000986
0 24 U C 0.000023
0 24 U U -0.000011
0 24 U G -0.000016
0 24 U - 0.000006
0 24 G A -0.016776
0 24 G C 0.000038
0 24 G U -0.000042
0 24 G G -0.000035
0 24 G - 0.000001
0 24 - A 0.017343
0 24 - C 0.000000
0 24 - U -0.000003
0 24 - G -0.000035
0 24 - - -0.000035
0 25 A A -0.019978
0 25 A C -0.000036
0 25 A U -0.000032
0 25 A G -0.000014
0 25 A - -0.000022
0 25 C A 0.015073
0 25 C C -0.000022
0 25 C U -0.000037
0 25 C G 0.000284
0 25 C - -0.000038
0 25 U A 0.000928
0 25 U C 0.000048
0 25 U U -0.000007
0 25 U G 0.000048
0 25 U - 0.000030
0 25 G A -0.016668
0 25 G C -0.000035
0 25 G U -0.000009
0 25 G G 0.000011
0 25 G - 0.000034
0 25 - A 0.015167
0 25 - C -0.000016
0 25 - U -0.000022
0 25 - G -0.000014
0 25 - - 0.000048
0 26 A A 0.000019
0 26 A C -0.011425
0 26 A U -0.000047
0 26 A G 0.000002
0 26 A - -0.000047
0 26 C A 0.000024
0 26 C C 0.018932
0 26 C U 0.000040
0 26 C G 0.000024
0 26 C - 0.000024
0 26 U A -0.000028
0 26 U C 0.000981
0 26 U U -0.000026
0 26 U G 0.000045
0 26 U - 0.000035
0 26 G A 0.000018
0 26 G C -0.014447
0 26 G U -0.000045
0 26 G G 0.001240
0 26 G - -0.000043
0 26 - A 0.000049
0 26 - C 0.017410
0 26 - U 0.000036
0 26 - G -0.000041
0 26 - - 0.000024
0 27 A A 0.000039
0 27 A C -0.016891
0 27 A U -0.000013
0 27 A G -0.000037
0 27 A - 0.000019
0 27 C A -0.000025
0 27 C C 0.014607
0 27 C U -0.000047
0 27 C G 0.000049
0 27 C - -0.000034
0 27 U A 0.000002
0 27 U C 0.001027
0 27 U U 0.000049
0 27 U G -0.000024
0 27 U - -0.000044
0 27 G A -0.000038
0 27 G C -0.006733
0 27 G U 0.000750
0 27 G G 0.000085
0 27 G - 0.000011
0 27 - A 0.000049
0 27 - C 0.013677
0 27 - U -0.000021
0 27 - G -0.000025
0 27 - - -0.000027
0 28 A A -0.000010
0 28 A C 0.000024
0 28 A U 0.000233
0 28 A G -0.001253
0 28 A - 0.000025
0 28 C A -0.000004
0 28 C C 0.000040
0 28 C U 0.003916
0 28 C G 0.000005
0 28 C - 0.000028
0 28 U A 0.000008
0 28 U C 0.000016
0 28 U U -0.000314
0 28 U G 0.001420
0 28 U - -0.000014
0 28 G A 0.000026
0 28 G C 0.001083
0 28 G U -0.006146
0 28 G G -0.002845
0 28 G - -0.000044
0 28 - A -0.000046
0 28 - C 0.000001
0 28 - U 0.001809
0 28 - G -0.000007
0 28 - - -0.000018
0 29 A A 0.000892
0 29 A C 0.000018
0 29 A U 0.000039
0 29 A G -0.003713
0 29 A - 0.000039
0 29 C A 0.000013
0 29 C C 0.000007
0 29 C U 0.000048
0 29 C G 0.004052
0 29 C - 0.000034
0 29 U A -0.000049
0 29 U C -0.000045
0 29 U U -0.000020
0 29 U G 0.001154
0 29 U - -0.000027
0 29 G A -0.034922
0 29 G C 0.000001
0 29 G U -0.000013
0 29 G G -0.000635
0 29 G - -0.000045
0 29 - A -0.000019
0 29 - C -0.000000
0 29 - U -0.000034
0 29 - G 0.002109
0 29 - - 0.000033
0 30 A A -0.000030
0 30 A C -0.003970
0 30 A U -0.000025
0 30 A G 0.000685
0 30 A - 0.000010
0 30 C A 0.000045
0 30 C C 0.002036
0 30 C U -0.000045
0 30 C G 0.000015
0 30 C - 0.000343
0 30 U A 0.000047
0 30 U C -0.000304
0 30 U U 0.000564
0 30 U G 0.001080
0 30 U - 0.000042
0 30 G A 0.000740
0 30 G C 0.000792
0 30 G U 0.000033
0 30 G G -0.096352
0 30 G - 0.000024
0 30 - A -0.000038
0 30 - C 0.000027
0 30 - U -0.000018
0 30 - G -0.000010
0 30 - - 0.000053
0 31 A A 0.002182
0 31 A C -0.008790
0 31 A U -0.000061
0 31 A G 0.000183
0 31 A - -0.000031
0 31 C A -0.000044
0 31 C C -0.000027
0 31 C U 0.001315
0 31 C G 0.000459
0 31 C - 0.000015
0 31 U A 0.000365
0 31 U C 0.000922
0 31 U U 0.000432
0 31 U G -0.000046
0 31 U - 0.000031
0 31 G A -0.000845
0 31 G C -0.000794
0 31 G U -0.125573
0 31 G G 0.001523
0 31 G - -0.000030
0 31 - A -0.000045
0 31 - C -0.000011
0 31 - U -0.000027
0 31 - G -0.000040
0 31 - - 0.000050
0 32 A A 0.000028
0 32 A C 0.000012
0 32 A U -0.000040
0 32 A G 0.000007
0 32 A - -0.007681
0 32 C A -0.000019
0 32 C C -0.000022
0 32 C U -0.000001
0 32 C G 0.000047
0 32 C - 0.010339
0 32 U A -0.000043
0 32 U C -0.000038
0 32 U U -0.000027
0 32 U G -0.000017
0 32 U - 0.001355
0 32 G A -0.000045
0 32 G C 0.000008
0 32 G U -0.000037
0 32 G G 0.000642
0 32 G - -0.002452
0 32 - A 0.000037
0 32 - C -0.000017
0 32 - U -0.000039
0 32 - G -0.000010
0 32 - - 0.002915
0 33 A A -0.000599
0 33 A C 0.000394
0 33 A U 0.000747
0 33 A G -0.000011
0 33 A - 0.000011
0 33 C A 0.001310
0 33 C C 0.000336
0 33 C U -0.000044
0 33 C G -0.000033
0 33 C - 0.000880
0 33 U A 0.001250
0 33 U C -0.000068
0 33 U U 0.000740
0 33 U G -0.000031
0 33 U - 0.000024
0 33 G A -0.001810
0 33 G C 0.001653
0 33 G U -0.068694
0 33 G G -0.000021
0 33 G - 0.001505
0 33 - A 0.000000
0 33 - C 0.000046
0 33 - U -0.000004
0 33 - G -0.000002
0 33 - - 0.000033
0 34 A A -0.000713
0 34 A C 0.000929
0 34 A U -0.000030
0 34 A G 0.000235
0 34 A - -0.000044
0 34 C A 0.000009
0 34 C C 0.000048
0 34 C U 0.000859
0 34 C G 0.000244
0 34 C - 0.001281
0 34 U A -0.000074
0 34 U C -0.000016
0 34 U U 0.000253
0 34 U G 0.002374
0 34 U - 0.000451
0 34 G A -0.000385
0 34 G C -0.000075
0 34 G U 0.000750
0 34 G G -0.020094
0 34 G - 0.001142
0 34 - A 0.000010
0 34 - C 0.000028
0 34 - U -0.000039
0 34 - G -0.000042
0 34 - - -0.000042
0 35 A A 0.001918
0 35 A C -0.000621
0 35 A U -0.000060
0 35 A G -0.000066
0 35 A - -0.000006
0 35 C A 0.001196
0 35 C C 0.000041
0 35 C U 0.000389
0 35 C G -0.000047
0 35 C - 0.000258
0 35 U A -0.000359
0 35 U C 0.000744
0 35 U U -0.000056
0 35 U G -0.000054
0 35 U - 0.001518
0 35 G A 0.000414
0 35 G C -0.002076
0 35 G U 0.000945
0 35 G G -0.001592
0 35 G - 0.003944
0 35 - A 0.000004
0 35 - C 0.000008
0 35 - U -0.000009
0 35 - G -0.000003
0 35 - - 0.000040
0 36 A A 0.000575
0 36 A C -0.000182
0 36 A U 0.000944
0 36 A G -0.000055
0 36 A - -0.000038
0 36 C A 0.000050
0 36 C C 0.001461
0 36 C U 0.000929
0 36 C G 0.000058
0 36 C - 0.000543
0 36 U A -0.289699
0 36 U C 0.000950
0 36 U U -0.000048
0 36 U G -0.000044
0 36 U - 0.001836
0 36 G A 0.000401
0 36 G C -0.028276
0 36 G U -0.000433
0 36 G G -0.000087
0 36 G - 0.013373
0 36 - A 0.000027
0 36 - C 0.000044
0 36 - U 0.000047
0 36 - G 0.000024
0 36 - - -0.000022
0 37 A A 0.001026
0 37 A C -0.002282
0 37 A U 0.000008
0 37 A G 0.000092
0 37 A - 0.000288
0 37 C A -0.000027
0 37 C C -0.000003
0 37 C U 0.001871
0 37 C G 0.000040
0 37 C - 0.000349
0 37 U A -0.000014
0 37 U C -0.000340
0 37 U U 0.001452
0 37 U G -0.000027
0 37 U - 0.000743
0 37 G A 0.000682
0 37 G C 0.001147
0 37 G U -0.002779
0 37 G G 0.002501
0 37 G - -0.000340
0 37 - A 0.000003
0 37 - C -0.000042
0 37 - U 0.000006
0 37 - G -0.000009
0 37 - - -0.000006
0 38 A A -0.000034
0 38 A C 0.000025
0 38 A U 0.000043
0 38 A G -0.000017
0 38 A - -0.007008
0 38 C A -0.000000
0 38 C C 0.000022
0 38 C U 0.000859
0 38 C G -0.000038
0 38 C - 0.002945
0 38 U A 0.000001
0 38 U C 0.000028
0 38 U U -0.000042
0 38 U G 0.000570
0 38 U - 0.000725
0 38 G A 0.000365
0 38 G C -0.000016
0 38 G U 0.000349
0 38 G G 0.000844
0 38 G - -0.003906
0 38 - A 0.000006
0 38 - C 0.000025
0 38 - U -0.000042
0 38 - G 0.000006
0 38 - - 0.000495
0 39 A A 0.000999
0 39 A C -0.000019
0 39 A U 0.001612
0 39 A G -0.009754
0 39 A - -0.000040
0 39 C A 0.000245
0 39 C C -0.000020
0 39 C U 0.000011
0 39 C G 0.001806
0 39 C - 0.000045
0 39 U A -0.000064
0 39 U C 0.000001
0 39 U U 0.000783
0 39 U G 0.000704
0 39 U - 0.000038
0 39 G A -0.035111
0 39 G C 0.000907
0 39 G U -0.000802
0 39 G G -0.000654
0 39 G - 0.000332
0 39 - A -0.000048
0 39 - C 0.000007
0 39 - U 0.000046
0 39 - G -0.000045
0 39 - - 0.000051
0 40 A A -0.000024
0 40 A C 0.000120
0 40 A U -0.000008
0 40 A G -0.002861
0 40 A - 0.000745
0 40 C A 0.000036
0 40 C C 0.000045
0 40 C U -0.000002
0 40 C G 0.002551
0 40 C - -0.000026
0 40 U A -0.000044
0 40 U C 0.001169
0 40 U U -0.000024
0 40 U G -0.000427
0 40 U - 0.000676
0 40 G A 0.000037
0 40 G C -0.113145
0 40 G U 0.000633
0 40 G G 0.000583
0 40 G - -0.000006
0 40 - A 0.000010
0 40 - C -0.000040
0 40 - U -0.000026
0 40 - G 0.000040
0 40 - - -0.000005
0 41 A A -0.000051
0 41 A C -0.035239
0 41 A U -0.000062
0 41 A G 0.000016
0 41 A - -0.000049
0 41 C A 0.000401
0 41 C C 0.001853
0 41 C U 0.000267
0 41 C G 0.000035
0 41 C - -0.000004
0 41 U A 0.000014
0 41 U C 0.000932
0 41 U U -0.000054
0 41 U G -0.000045
0 41 U - 0.000021
0 41 G A 0.000014
0 41 G C -0.002183
0 41 G U -0.033782
0 41 G G 0.000040
0 41 G - -0.000037
0 41 - A -0.000004
0 41 - C 0.007426
0 41 - U 0.000018
0 41 - G 0.000020
0 41 - - 0.000003
0 42 A A -0.010409
0 42 A C 0.000007
0 42 A U -0.000049
0 42 A G -0.000001
0 42 A - -0.000020
0 42 C A 0.020692
0 42 C C -0.000005
0 42 C U 0.000003
0 42 C G 0.000026
0 42 C - 0.000044
0 42 U A 0.000757
0 42 U C -0.000042
0 42 U U -0.000011
0 42 U G -0.000036
0 42 U - -0.000032
0 42 G A -0.022573
0 42 G C 0.000027
0 42 G U 0.000026
0 42 G G 0.000013
0 42 G - 0.000968
0 42 - A 0.011538
0 42 - C 0.000035
0 42 - U 0.000020
0 42 - G 0.000023
0 42 - - -0.000000
0 43 A A -0.001086
0 43 A C -0.001714
0 43 A U 0.000038
0 43 A G 0.000016
0 43 A - 0.000047
0 43 C A 0.001875
0 43 C C -0.000008
0 43 C U 0.000922
0 43 C G -0.000048
0 43 C - 0.000003
0 43 U A -0.000087
0 43 U C 0.000376
0 43 U U -0.000015
0 43 U G 0.000624
0 43 U - 0.000007
0 43 G A -0.004046
0 43 G C -0.001291
0 43 G U -0.000030
0 43 G G 0.000263
0 43 G - 0.000019
0 43 - A 0.001827
0 43 - C -0.000028
0 43 - U -0.000035
0 43 - G -0.000033
0 43 - - -0.000019
0 44 A A -0.000007
0 44 A C 0.000043
0 44 A U 0.000025
0 44 A G -0.011907
0 44 A - 0.000036
0 44 C A -0.000028
0 44 C C 0.000042
0 44 C U -0.000029
0 44 C G 0.007963
0 44 C - 0.000028
0 44 U A 0.000048
0 44 U C -0.000001
0 44 U U -0.000039
0 44 U G 0.000979
0 44 U - 0.000043
0 44 G A -0.000029
0 44 G C -0.000044
0 44 G U 0.000022
0 44 G G -0.007935
0 44 G - -0.000034
0 44 - A 0.000044
0 44 - C -0.000049
0 44 - U 0.000044
0 44 - G 0.012503
0 44 - - 0.000043
0 45 A A 0.000032
0 45 A C -0.000032
0 45 A U -0.000019
0 45 A G -0.011951
0 45 A - -0.000032
0 45 C A -0.000024
0 45 C C -0.000028
0 45 C U 0.000003
0 45 C G 0.007653
0 45 C - -0.000038
0 45 U A 0.000049
0 45 U C -0.000001
0 45 U U -0.000006
0 45 U G 0.000739
0 45 U - -0.000010
0 45 G A -0.000037
0 45 G C 0.000039
0 45 G U -0.000031
0 45 G G -0.006181
0 45 G - -0.000015
0 45 - A -0.000042
0 45 - C -0.000018
0 45 - U 0.000032
0 45 - G 0.018097
0 45 - - -0.000020
0 46 A A 0.000034
0 46 A C -0.000049
0 46 A U -0.013802
0 46 A G -0.000041
0 46 A - -0.000006
0 46 C A 0.000034
0 46 C C 0.000034
0 46 C U 0.014195
0 46 C G 0.000007
0 46 C - -0.000034
0 46 U A 0.000034
0 46 U C 0.000040
0 46 U U 0.000816
0 46 U G 0.000039
0 46 U - -0.000033
0 46 G A -0.000009
0 46 G C -0.000013
0 46 G U -0.008498
0 46 G G -0.000011
0 46 G - 0.000022
0 46 - A 0.000042
0 46 - C 0.000034
0 46 - U 0.016405
0 46 - G 0.000049
0 46 - - 0.000040
0 47 A A 0.000023
0 47 A C -0.000049
0 47 A U -0.000010
0 47 A G -0.011175
0 47 A - 0.000038
0 47 C A 0.000002
0 47 C C 0.000030
0 47 C U 0.000030
0 47 C G 0.020227
0 47 C - -0.000050
0 47 U A 0.000000
0 47 U C -0.000008
0 47 U U 0.000877
0 47 U G -0.000008
0 47 U - 0.000017
0 47 G A 0.000468
0 47 G C 0.000013
0 47 G U 0.000023
0 47 G G -0.007437
0 47 G - -0.000016
0 47 - A 0.000030
0 47 - C 0.000047
0 47 - U 0.000047
0 47 - G 0.013521
0 47 - - 0.000030
0 48 A A 0.000045
0 48 A C 0.001157
0 48 A U -0.000046
0 48 A G -0.041654
0 48 A - -0.000016
0 48 C A -0.000036
0 48 C C 0.000041
0 48 C U 0.000032
0 48 C G 0.001405
0 48 C - 0.000331
0 48 U A 0.000038
0 48 U C 0.000515
0 48 U U 0.000023
0 48 U G 0.000646
0 48 U - 0.000005
0 48 G A 0.000033
0 48 G C -0.001988
0 48 G U -0.000016
0 48 G G -0.001133
0 48 G - -0.000011
0 48 - A 0.000035
0 48 - C 0.000033
0 48 - U 0.000046
0 48 - G -0.000042
0 48 - - -0.000004
0 49 A A -0.000004
0 49 A C 0.000240
0 49 A U -0.006581
0 49 A G 0.000343
0 49 A - 0.000021
0 49 C A 0.000335
0 49 C C 0.000434
0 49 C U 0.000043
0 49 C G 0.000038
0 49 C - 0.000944
0 49 U A 0.001457
0 49 U C 0.001001
0 49 U U -0.101278
0 49 U G -0.000001
0 49 U - 0.000044
0 49 G A -0.008040
0 49 G C -0.000893
0 49 G U -0.000218
0 49 G G 0.001480
0 49 G - 0.000011
0 49 - A 0.000031
0 49 - C -0.000042
0 49 - U 0.000048
0 49 - G 0.000020
0 49 - - 0.000039
0 50 A A -0.004853
0 50 A C -0.000012
0 50 A U 0.000079
0 50 A G 0.001440
0 50 A - 0.000010
0 50 C A 0.001798
0 50 C C 0.000004
0 50 C U 0.000022
0 50 C G 0.000000
0 50 C - 0.000414
0 50 U A 0.000460
0 50 U C -0.000060
0 50 U U 0.000149
0 50 U G 0.000311
0 50 U - 0.000629
0 50 G A -0.000806
0 50 G C 0.000919
0 50 G U -0.002523
0 50 G G -0.000251
0 50 G - 0.000393
0 50 - A 0.000048
0 50 - C -0.000015
0 50 - U -0.000009
0 50 - G -0.000022
0 50 - - -0.000001
0 51 A A -0.000250
0 51 A C -0.000016
0 51 A U 0.000397
0 51 A G 0.000002
0 51 A - 0.000877
0 51 C A 0.000009
0 51 C C 0.000003
0 51 C U 0.000043
0 51 C G 0.000388
0 51 C - 0.002132
0 51 U A 0.000370
0 51 U C 0.000016
0 51 U U 0.000000
0 51 U G 0.000867
0 51 U - 0.000362
0 51 G A -0.000238
0 51 G C -0.000114
0 51 G U 0.000517
0 51 G G 0.000493
0 51 G - -0.007550
0 51 - A -0.000048
0 51 - C -0.000034
0 51 - U -0.000025
0 51 - G -0.000040
0 51 - - 0.000003
0 52 A A 0.000211
0 52 A C -0.000043
0 52 A U 0.000144
0 52 A G 0.000992
0 52 A - -0.012727
0 52 C A 0.001347
0 52 C C 0.000016
0 52 C U -0.000015
0 52 C G -0.000034
0 52 C - 0.000409
0 52 U A -0.004577
0 52 U C 0.000557
0 52 U U 0.000015
0 52 U G 0.000828
0 52 U - -0.000060
0 52 G A -0.000819
0 52 G C -0.000054
0 52 G U -0.041206
0 52 G G 0.000524
0 52 G - -0.000390
0 52 - A 0.000000
0 52 - C 0.000025
0 52 - U -0.000018
0 52 - G 0.000004
0 52 - - -0.000032
0 53 A A -0.000401
0 53 A C 0.000680
0 53 A U 0.000992
0 53 A G -0.000056
0 53 A - -0.025764
0 53 C A 0.002154
0 53 C C -0.000014
0 53 C U 0.000010
0 53 C G 0.000049
0 53 C - 0.000340
0 53 U A -0.000378
0 53 U C 0.000515
0 53 U U 0.000786
0 53 U G 0.000037
0 53 U - 0.000779
0 53 G A -0.003795
0 53 G C 0.001552
0 53 G U -0.001610
0 53 G G 0.000655
0 53 G - -0.001213
0 53 - A -0.000048
0 53 - C 0.000004
0 53 - U -0.000042
0 53 - G -0.000015
0 53 - - -0.000048
0 54 A A 0.000287
0 54 A C 0.000026
0 54 A U -0.000022
0 54 A G 0.001193
0 54 A - -0.008539
0 54 C A 0.001234
0 54 C C 0.000933
0 54 C U -0.000024
0 54 C G 0.000007
0 54 C - 0.000354
0 54 U A 0.001636
0 54 U C 0.000268
0 54 U U -0.000049
0 54 U G -0.000011
0 54 U - -0.000065
0 54 G A -0.000884
0 54 G C 0.006478
0 54 G U -0.008570
0 54 G G 0.000645
0 54 G - -0.000261
0 54 - A 0.000015
0 54 - C -0.000013
0 54 - U 0.000016
0 54 - G 0.000015
0 54 - - 0.000021
0 55 A A -0.000705
0 55 A C -0.000009
0 55 A U 0.000006
0 55 A G 0.000507
0 55 A - 0.000695
0 55 C A 0.000353
0 55 C C -0.000044
0 55 C U 0.000010
0 55 C G -0.000049
0 55 C - 0.002867
0 55 U A 0.000637
0 55 U C 0.001032
0 55 U U -0.000052
0 55 U G 0.000024
0 55 U - 0.000362
0 55 G A 0.000891
0 55 G C -0.000138
0 55 G U -0.000032
0 55 G G 0.000531
0 55 G - -0.018708
0 55 - A 0.000028
0 55 - C 0.000009
0 55 - U 0.000023
0 55 - G 0.000038
0 55 - - -0.000007
0 56 A A -0.001662
0 56 A C 0.000497
0 56 A U -0.000047
0 56 A G -0.000027
0 56 A - 0.000757
0 56 C A -0.000002
0 56 C C -0.000013
0 56 C U -0.000038
0 56 C G 0.000349
0 56 C - 0.002838
0 56 U A -0.000005
0 56 U C 0.000512
0 56 U U 0.000843
0 56 U G 0.000037
0 56 U - 0.000249
0 56 G A -0.000379
0 56 G C -0.000018
0 56 G U 0.001407
0 56 G G 0.001751
0 56 G - -0.045439
0 56 - A 0.000014
0 56 - C 0.000006
0 56 - U 0.000026
0 56 - G 0.000008
0 56 - - -0.000043
0 57 A A -0.000007
0 57 A C -0.000034
0 57 A U 0.000014
0 57 A G -0.000037
0 57 A - -0.000744
0 57 C A 0.000015
0 57 C C 0.000034
0 57 C U 0.000373
0 57 C G -0.000033
0 57 C - 0.002791
0 57 U A -0.000022
0 57 U C 0.000609
0 57 U U -0.000048
0 57 U G -0.000053
0 57 U - -0.006396
0 57 G A -0.000884
0 57 G C -0.000012
0 57 G U 0.000009
0 57 G G -0.000121
0 57 G - -0.000165
0 57 - A -0.000041
0 57 - C -0.000032
0 57 - U -0.000027
0 57 - G -0.000016
0 57 - - -0.000031
0 58 A A -0.000037
0 58 A C 0.000024
0 58 A U 0.000006
0 58 A G -0.000060
0 58 A - -0.000969
0 58 C A 0.000014
0 58 C C -0.000031
0 58 C U 0.000348
0 58 C G -0.000042
0 58 C - 0.002853
0 58 U A 0.000009
0 58 U C 0.000008
0 58 U U 0.000019
0 58 U G 0.000536
0 58 U - 0.000618
0 58 G A -0.000062
0 58 G C 0.000370
0 58 G U -0.000037
0 58 G G -0.000038
0 58 G - -0.038649
0 58 - A 0.000004
0 58 - C -0.000043
0 58 - U -0.000000
0 58 - G 0.000048
0 58 - - 0.004597
0 59 A A -0.000010
0 59 A C -0.000014
0 59 A U -0.000015
0 59 A G 0.000041
0 59 A - -0.005248
0 59 C A 0.000020
0 59 C C 0.000006
0 59 C U -0.000032
0 59 C G 0.000033
0 59 C - 0.003849
0 59 U A -0.000048
0 59 U C -0.000002
0 59 U U -0.000032
0 59 U G 0.000008
0 59 U - -0.000495
0 59 G A 0.000005
0 59 G C -0.000005
0 59 G U -0.000018
0 59 G G 0.000021
0 59 G - -0.001641
0 59 - A 0.000028
0 59 - C -0.000047
0 59 - U -0.000044
0 59 - G 0.000039
0 59 - - 0.011840
0 60 A A 0.000008
0 60 A C 0.000015
0 60 A U -0.000043
0 60 A G 0.000012
0 60 A - -0.004104
0 60 C A 0.000035
0 60 C C 0.000893
0 60 C U 0.000006
0 60 C G -0.000006
0 60 C - 0.002798
0 60 U A -0.000017
0 60 U C 0.000041
0 60 U U -0.000048
0 60 U G -0.000013
0 60 U - -0.001896
0 60 G A -0.000052
0 60 G C -0.000034
0 60 G U -0.000012
0 60 G G 0.000311
0 60 G - -0.003322
0 60 - A 0.000044
0 60 - C -0.000043
0 60 - U -0.000045
0 60 - G 0.000041
0 60 - - 0.011192
0 61 A A -0.000038
0 61 A C -0.000048
0 61 A U -0.000024
0 61 A G 0.000928
0 61 A - -0.002312
0 61 C A -0.000011
0 61 C C 0.000018
0 61 C U 0.000863
0 61 C G -0.000031
0 61 C - 0.010591
0 61 U A -0.000018
0 61 U C -0.000000
0 61 U U -0.000050
0 61 U G 0.000557
0 61 U - 0.000635
0 61 G A 0.000132
0 61 G C 0.000031
0 61 G U 0.000142
0 61 G G 0.000897
0 61 G - -0.011232
0 61 - A 0.000019
0 61 - C 0.000028
0 61 - U -0.000003
0 61 - G 0.000020
0 61 - - -0.000004
0 62 A A -0.000041
0 62 A C 0.000026
0 62 A U -0.000001
0 62 A G -0.000156
0 62 A - 0.000105
0 62 C A 0.000019
0 62 C C 0.000376
0 62 C U 0.000024
0 62 C G 0.000041
0 62 C - 0.002811
0 62 U A -0.000044
0 62 U C 0.000018
0 62 U U 0.000033
0 62 U G 0.000467
0 62 U - 0.000904
0 62 G A -0.000001
0 62 G C -0.000067
0 62 G U -0.000021
0 62 G G -0.000143
0 62 G - -0.031845
0 62 - A -0.000020
0 62 - C -0.000029
0 62 - U -0.000008
0 62 - G -0.000000
0 62 - - -0.000025
0 63 A A 0.000014
0 63 A C -0.000017
0 63 A U -0.000032
0 63 A G -0.002668
0 63 A - 0.000918
0 63 C A 0.000315
0 63 C C -0.000041
0 63 C U 0.000034
0 63 C G 0.000864
0 63 C - 0.001802
0 63 U A -0.000015
0 63 U C 0.000498
0 63 U U 0.000826
0 63 U G -0.000073
0 63 U - 0.000364
0 63 G A 0.000966
0 63 G C 0.000659
0 63 G U 0.001291
0 63 G G -0.000244
0 63 G - -0.008659
0 63 - A -0.000030
0 63 - C -0.000020
0 63 - U 0.000049
0 63 - G -0.000009
0 63 - - -0.000016
0 64 A A -0.000189
0 64 A C 0.000009
0 64 A U 0.000011
0 64 A G -0.000074
0 64 A - 0.000738
0 64 C A 0.000040
0 64 C C -0.000026
0 64 C U -0.000049
0 64 C G 0.000370
0 64 C - 0.002150
0 64 U A 0.000780
0 64 U C 0.000000
0 64 U U 0.000003
0 64 U G 0.000313
0 64 U - 0.000334
0 64 G A -0.000060
0 64 G C 0.001966
0 64 G U 0.000055
0 64 G G -0.000577
0 64 G - -0.015894
0 64 - A 0.000016
0 64 - C -0.000049
0 64 - U -0.000026
0 64 - G 0.000021
0 64 - - 0.000574
0 65 A A -0.000039
0 65 A C 0.001003
0 65 A U -0.000034
0 65 A G -0.000318
0 65 A - -0.000078
0 65 C A 0.001240
0 65 C C -0.000028
0 65 C U 0.000009
0 65 C G 0.000035
0 65 C - 0.001836
0 65 U A 0.000311
0 65 U C 0.000285
0 65 U U -0.000007
0 65 U G 0.000698
0 65 U - 0.000465
0 65 G A -0.000021
0 65 G C -0.000140
0 65 G U 0.000619
0 65 G G 0.000097
0 65 G - -0.042502
0 65 - A 0.000003
0 65 - C 0.000026
0 65 - U 0.000011
0 65 - G 0.000050
0 65 - - 0.000050
0 66 A A 0.001032