# NB_STEPS 3000
# UP_FREQ 1000
# TEMP 1.000000
# LAMBDA 0.050000
# ID_THRES 1.000000
# ALPHA 0.799449
0 0 A A 0.002723
0 0 C C -0.001274
0 0 U U -0.002272
0 0 G G -0.000070
0 0 - - 0.000767
0 1 A A 0.000776
0 1 A C -0.000010
0 1 A U 0.000664
0 1 A G -0.000015
0 1 A - 0.001873
0 1 C A -0.813913
0 1 C C 0.003559
0 1 C U 0.000536
0 1 C G 0.123900
0 1 C - 0.004588
0 1 U A 0.002414
0 1 U C 0.000062
0 1 U U 0.000041
0 1 U G -0.000006
0 1 U - 0.000019
0 1 G A 0.020114
0 1 G C 0.000007
0 1 G U 0.000057
0 1 G G -0.000016
0 1 G - 0.000044
0 1 - A 0.064170
0 1 - C 0.000046
0 1 - U 0.000392
0 1 - G 0.000025
0 1 - - 0.000035
0 2 A A 0.002926
0 2 A C -0.000008
0 2 A U -0.000011
0 2 A G 0.000052
0 2 A - 0.000052
0 2 C A -0.113810
0 2 C C -0.000032
0 2 C U 0.002034
0 2 C G 0.001313
0 2 C - 0.000048
0 2 U A 0.000593
0 2 U C -0.000055
0 2 U U -0.000015
0 2 U G -0.000045
0 2 U - -0.000008
0 2 G A 0.000024
0 2 G C -0.000020
0 2 G U 0.000037
0 2 G G -0.000024
0 2 G - -0.000031
0 2 - A 0.012553
0 2 - C 0.000004
0 2 - U 0.000896
0 2 - G 0.000051
0 2 - - -0.000041
0 3 A A 0.001640
0 3 A C -0.000029
0 3 A U -0.000007
0 3 A G -0.000010
0 3 A - 0.000558
0 3 C A -0.444012
0 3 C C 0.000816
0 3 C U 0.001177
0 3 C G 0.014916
0 3 C - 0.000008
0 3 U A 0.000144
0 3 U C 0.000534
0 3 U U 0.000766
0 3 U G -0.000041
0 3 U - 0.000034
0 3 G A 0.002540
0 3 G C 0.000065
0 3 G U -0.000013
0 3 G G 0.000020
0 3 G - 0.000004
0 3 - A 0.021312
0 3 - C -0.000003
0 3 - U 0.000062
0 3 - G 0.000159
0 3 - - -0.000048
0 4 A A -0.000034
0 4 A C 0.003884
0 4 A U 0.000836
0 4 A G 0.000017
0 4 A - 0.000054
0 4 C A -0.000025
0 4 C C -0.309153
0 4 C U 0.000157
0 4 C G 0.001089
0 4 C - 0.001008
0 4 U A -0.000036
0 4 U C 0.000237
0 4 U U -0.000033
0 4 U G 0.000894
0 4 U - -0.000021
0 4 G A -0.000043
0 4 G C -0.000034
0 4 G U -0.000040
0 4 G G 0.000008
0 4 G - -0.000004
0 4 - A 0.000038
0 4 - C 0.001841
0 4 - U -0.000031
0 4 - G 0.000034
0 4 - - -0.000053
0 5 A A 0.000021
0 5 A C 0.000034
0 5 A U 0.002654
0 5 A G 0.000369
0 5 A - 0.000059
0 5 C A 0.000715
0 5 C C 0.000029
0 5 C U -0.328920
0 5 C G 0.000691
0 5 C - 0.000113
0 5 U A -0.000069
0 5 U C 0.001308
0 5 U U 0.000872
0 5 U G -0.000052
0 5 U - 0.000051
0 5 G A -0.000034
0 5 G C 0.000051
0 5 G U -0.000008
0 5 G G 0.000014
0 5 G - 0.000027
0 5 - A -0.000003
0 5 - C 0.000014
0 5 - U 0.000112
0 5 - G 0.000015
0 5 - - 0.000874
0 6 A A 0.000018
0 6 A C 0.000023
0 6 A U -0.000037
0 6 A G 0.001751
0 6 A - -0.000022
0 6 C A 0.000019
0 6 C C 0.000042
0 6 C U -0.000044
0 6 C G -0.033219
0 6 C - 0.000047
0 6 U A 0.000036
0 6 U C -0.000018
0 6 U U 0.000006
0 6 U G -0.000610
0 6 U - -0.000002
0 6 G A 0.000042
0 6 G C 0.000010
0 6 G U 0.000025
0 6 G G -0.000052
0 6 G - 0.000040
0 6 - A 0.000044
0 6 - C -0.000021
0 6 - U -0.000036
0 6 - G 0.007078
0 6 - - 0.000031
0 7 A A 0.002634
0 7 A C -0.000025
0 7 A U -0.000014
0 7 A G 0.000017
0 7 A - -0.000035
0 7 C A -0.005613
0 7 C C -0.000008
0 7 C U 0.000111
0 7 C G 0.000003
0 7 C - 0.000178
0 7 U A -0.001882
0 7 U C -0.000015
0 7 U U -0.000005
0 7 U G -0.000016
0 7 U - 0.000025
0 7 G A -0.000047
0 7 G C -0.000041
0 7 G U -0.000050
0 7 G G 0.000015
0 7 G - -0.000014
0 7 - A 0.003036
0 7 - C -0.000020
0 7 - U -0.000026
0 7 - G 0.000804
0 7 - - -0.000041
0 8 A A 0.000020
0 8 A C -0.000031
0 8 A U 0.000010
0 8 A G 0.002012
0 8 A - -0.000016
0 8 C A 0.000783
0 8 C C 0.006097
0 8 C U -0.000966
0 8 C G -0.185750
0 8 C - 0.006380
0 8 U A 0.000695
0 8 U C -0.000033
0 8 U U -0.000017
0 8 U G -0.000004
0 8 U - 0.000017
0 8 G A -0.000025
0 8 G C 0.000029
0 8 G U -0.000000
0 8 G G 0.000035
0 8 G - 0.000021
0 8 - A 0.000032
0 8 - C 0.000021
0 8 - U 0.000039
0 8 - G 0.000896
0 8 - - -0.000018
0 9 A A 0.000047
0 9 A C 0.000648
0 9 A U -0.000013
0 9 A G -0.000037
0 9 A - -0.000045
0 9 C A 0.000025
0 9 C C -0.002123
0 9 C U -0.000014
0 9 C G -0.000015
0 9 C - -0.000016
0 9 U A -0.000004
0 9 U C -0.005474
0 9 U U 0.000034
0 9 U G -0.000004
0 9 U - 0.000036
0 9 G A 0.000049
0 9 G C -0.000016
0 9 G U 0.000042
0 9 G G -0.000020
0 9 G - -0.000049
0 9 - A 0.000031
0 9 - C 0.009262
0 9 - U 0.000035
0 9 - G -0.000019
0 9 - - -0.000045
0 10 A A 0.000573
0 10 A C -0.000020
0 10 A U 0.000343
0 10 A G 0.000047
0 10 A - 0.000013
0 10 C A -0.004775
0 10 C C -0.000003
0 10 C U -0.000018
0 10 C G 0.000038
0 10 C - 0.000049
0 10 U A -0.008604
0 10 U C -0.000047
0 10 U U -0.000003
0 10 U G 0.000028
0 10 U - 0.000050
0 10 G A -0.000074
0 10 G C -0.000003
0 10 G U -0.000003
0 10 G G 0.000012
0 10 G - -0.000021
0 10 - A 0.012246
0 10 - C 0.000050
0 10 - U -0.000029
0 10 - G 0.000050
0 10 - - -0.000030
0 11 A A 0.000015
0 11 A C 0.000048
0 11 A U -0.000031
0 11 A G 0.002217
0 11 A - -0.000039
0 11 C A -0.000031
0 11 C C -0.000048
0 11 C U -0.000049
0 11 C G -0.006446
0 11 C - 0.000003
0 11 U A 0.000365
0 11 U C 0.000045
0 11 U U 0.000016
0 11 U G -0.002107
0 11 U - -0.000001
0 11 G A 0.000020
0 11 G C -0.000046
0 11 G U -0.000027
0 11 G G 0.000006
0 11 G - -0.000043
0 11 - A 0.000005
0 11 - C -0.000005
0 11 - U -0.000006
0 11 - G 0.007832
0 11 - - -0.000049
0 12 A A -0.000003
0 12 A C -0.000003
0 12 A U 0.000036
0 12 A G 0.002043
0 12 A - 0.000006
0 12 C A -0.019008
0 12 C C 0.000788
0 12 C U 0.000024
0 12 C G -0.002491
0 12 C - 0.000050
0 12 U A 0.000393
0 12 U C -0.000021
0 12 U U 0.000033
0 12 U G -0.020589
0 12 U - 0.000033
0 12 G A 0.000031
0 12 G C -0.000031
0 12 G U -0.000023
0 12 G G 0.000027
0 12 G - -0.000016
0 12 - A 0.000011
0 12 - C 0.000011
0 12 - U 0.000017
0 12 - G 0.000778
0 12 - - 0.000024
0 13 A A 0.000050
0 13 A C 0.002514
0 13 A U -0.000021
0 13 A G -0.000000
0 13 A - 0.000018
0 13 C A 0.000012
0 13 C C -0.002743
0 13 C U -0.000014
0 13 C G 0.000038
0 13 C - 0.000040
0 13 U A -0.000044
0 13 U C -0.000122
0 13 U U 0.000030
0 13 U G 0.000037
0 13 U - -0.000023
0 13 G A -0.000034
0 13 G C 0.000010
0 13 G U -0.000013
0 13 G G -0.000034
0 13 G - -0.000045
0 13 - A -0.000035
0 13 - C -0.000019
0 13 - U -0.000041
0 13 - G 0.000871
0 13 - - -0.000005
0 14 A A 0.000503
0 14 A C 0.000696
0 14 A U 0.000016
0 14 A G 0.000779
0 14 A - -0.000009
0 14 C A -0.000510
0 14 C C -0.147341
0 14 C U 0.001387
0 14 C G 0.000206
0 14 C - 0.004401
0 14 U A 0.000010
0 14 U C 0.000081
0 14 U U -0.000002
0 14 U G -0.102231
0 14 U - 0.000043
0 14 G A 0.000017
0 14 G C -0.000044
0 14 G U -0.000019
0 14 G G -0.000025
0 14 G - 0.000055
0 14 - A 0.000053
0 14 - C -0.000011
0 14 - U 0.000036
0 14 - G 0.000864
0 14 - - 0.000038
0 15 A A 0.001942
0 15 A C 0.000314
0 15 A U -0.000023
0 15 A G 0.000846
0 15 A - -0.000014
0 15 C A -0.004264
0 15 C C -0.000008
0 15 C U -0.000179
0 15 C G 0.001985
0 15 C - -0.000069
0 15 U A -0.000120
0 15 U C 0.000010
0 15 U U 0.000975
0 15 U G -0.002297
0 15 U - -0.000032
0 15 G A 0.000001
0 15 G C -0.000040
0 15 G U -0.000031
0 15 G G 0.000030
0 15 G - -0.000034
0 15 - A 0.000833
0 15 - C 0.000007
0 15 - U -0.000050
0 15 - G -0.000037
0 15 - - 0.000007
0 16 A A 0.000026
0 16 A C -0.000009
0 16 A U 0.002442
0 16 A G -0.000031
0 16 A - -0.000012
0 16 C A -0.000054
0 16 C C 0.001384
0 16 C U -0.002305
0 16 C G 0.000845
0 16 C - 0.000953
0 16 U A 0.000021
0 16 U C -0.000046
0 16 U U -0.000588
0 16 U G 0.000034
0 16 U - -0.000043
0 16 G A -0.000037
0 16 G C 0.000018
0 16 G U 0.000022
0 16 G G 0.000038
0 16 G - 0.000043
0 16 - A -0.000000
0 16 - C -0.000046
0 16 - U 0.000176
0 16 - G -0.000031
0 16 - - 0.000780
0 17 A A 0.000210
0 17 A C 0.000045
0 17 A U 0.000014
0 17 A G 0.001521
0 17 A - -0.000026
0 17 C A -0.003528
0 17 C C 0.002862
0 17 C U 0.000452
0 17 C G -0.016269
0 17 C - 0.000560
0 17 U A -0.000029
0 17 U C 0.000018
0 17 U U -0.000030
0 17 U G -0.000475
0 17 U - 0.000918
0 17 G A -0.000016
0 17 G C -0.000021
0 17 G U -0.000040
0 17 G G 0.000005
0 17 G - 0.000040
0 17 - A -0.000032
0 17 - C 0.000840
0 17 - U 0.000008
0 17 - G 0.000032
0 17 - - 0.000036
0 18 A A 0.000793
0 18 A C 0.000375
0 18 A U -0.000014
0 18 A G 0.000030
0 18 A - -0.000032
0 18 C A -0.006891
0 18 C C 0.003277
0 18 C U 0.000236
0 18 C G 0.000993
0 18 C - -0.000071
0 18 U A 0.001115
0 18 U C 0.000766
0 18 U U -0.000058
0 18 U G -0.000118
0 18 U - -0.000022
0 18 G A -0.000036
0 18 G C 0.000009
0 18 G U -0.000004
0 18 G G 0.000001
0 18 G - -0.000001
0 18 - A 0.000035
0 18 - C 0.000029
0 18 - U 0.000895
0 18 - G 0.000009
0 18 - - -0.000024
0 19 A A 0.000776
0 19 A C 0.001052
0 19 A U 0.000027
0 19 A G 0.000030
0 19 A - 0.000019
0 19 C A 0.000748
0 19 C C -0.001972
0 19 C U -0.002618
0 19 C G 0.003324
0 19 C - -0.000028
0 19 U A -0.004390
0 19 U C -0.000050
0 19 U U -0.000021
0 19 U G -0.000070
0 19 U - 0.000035
0 19 G A -0.000057
0 19 G C 0.000038
0 19 G U -0.000050
0 19 G G -0.000013
0 19 G - 0.000001
0 19 - A 0.000863
0 19 - C -0.000042
0 19 - U -0.000035
0 19 - G -0.000043
0 19 - - 0.000036
0 20 A A 0.000616
0 20 A C 0.001527
0 20 A U -0.000073
0 20 A G -0.000049
0 20 A - 0.000040
0 20 C A -0.001494
0 20 C C 0.000182
0 20 C U -0.011289
0 20 C G 0.000217
0 20 C - 0.003172
0 20 U A -0.000051
0 20 U C -0.002050
0 20 U U 0.000835
0 20 U G -0.000034
0 20 U - 0.000435
0 20 G A -0.000031
0 20 G C -0.000040
0 20 G U -0.000011
0 20 G G -0.000038
0 20 G - 0.000009
0 20 - A 0.000019
0 20 - C 0.000806
0 20 - U 0.000014
0 20 - G 0.000015
0 20 - - -0.000042
0 21 A A 0.001667
0 21 A C -0.000046
0 21 A U -0.000066
0 21 A G -0.000008
0 21 A - -0.000018
0 21 C A 0.000892
0 21 C C -0.001185
0 21 C U -0.003355
0 21 C G 0.001202
0 21 C - 0.001812
0 21 U A -0.000045
0 21 U C -0.000009
0 21 U U 0.001280
0 21 U G 0.000626
0 21 U - -0.000036
0 21 G A 0.000004
0 21 G C 0.000027
0 21 G U 0.000034
0 21 G G -0.000018
0 21 G - 0.000032
0 21 - A -0.000021
0 21 - C 0.000857
0 21 - U 0.000002
0 21 - G 0.000017
0 21 - - -0.000041
0 22 A A 0.000888
0 22 A C -0.000066
0 22 A U 0.000506
0 22 A G 0.000012
0 22 A - 0.000002
0 22 C A -0.000452
0 22 C C 0.000912
0 22 C U -0.000744
0 22 C G 0.001087
0 22 C - -0.000654
0 22 U A 0.000194
0 22 U C 0.000013
0 22 U U -0.015351
0 22 U G -0.000016
0 22 U - -0.000009
0 22 G A 0.000034
0 22 G C 0.000026
0 22 G U 0.000026
0 22 G G -0.000005
0 22 G - 0.000017
0 22 - A -0.000006
0 22 - C -0.000005
0 22 - U 0.000878
0 22 - G 0.000040
0 22 - - -0.000036
0 23 A A 0.000853
0 23 A C 0.000238
0 23 A U -0.000073
0 23 A G 0.000287
0 23 A - -0.000021
0 23 C A -0.000501
0 23 C C -0.000397
0 23 C U -0.019248
0 23 C G 0.002874
0 23 C - 0.003408
0 23 U A -0.000068
0 23 U C 0.000950
0 23 U U 0.001067
0 23 U G -0.000014
0 23 U - -0.000055
0 23 G A -0.000035
0 23 G C -0.000034
0 23 G U -0.000054
0 23 G G 0.000029
0 23 G - -0.000022
0 23 - A 0.000029
0 23 - C 0.000049
0 23 - U 0.000900
0 23 - G 0.000019
0 23 - - -0.000010
0 24 A A 0.000009
0 24 A C -0.000015
0 24 A U 0.001691
0 24 A G -0.000050
0 24 A - -0.000047
0 24 C A 0.000541
0 24 C C 0.001939
0 24 C U 0.000121
0 24 C G -0.000324
0 24 C - -0.002333
0 24 U A -0.000053
0 24 U C 0.000516
0 24 U U -0.000082
0 24 U G -0.000011
0 24 U - 0.000840
0 24 G A 0.000016
0 24 G C -0.000036
0 24 G U -0.000031
0 24 G G 0.000009
0 24 G - -0.000025
0 24 - A 0.000816
0 24 - C 0.000028
0 24 - U 0.000034
0 24 - G 0.000032
0 24 - - 0.000009
0 25 A A 0.000881
0 25 A C 0.000016
0 25 A U -0.000031
0 25 A G 0.000005
0 25 A - 0.000378
0 25 C A -0.005398
0 25 C C 0.002401
0 25 C U -0.000854
0 25 C G -0.000362
0 25 C - -0.000257
0 25 U A 0.000960
0 25 U C 0.001137
0 25 U U -0.000036
0 25 U G -0.003719
0 25 U - -0.000052
0 25 G A -0.000039
0 25 G C -0.000001
0 25 G U -0.000014
0 25 G G 0.000040
0 25 G - -0.000011
0 25 - A 0.000019
0 25 - C -0.000011
0 25 - U 0.000028
0 25 - G 0.000880
0 25 - - 0.000002
0 26 A A -0.000018
0 26 A C -0.000024
0 26 A U 0.000357
0 26 A G 0.000929
0 26 A - -0.000029
0 26 C A -0.002524
0 26 C C 0.000018
0 26 C U -0.000137
0 26 C G 0.000479
0 26 C - 0.000373
0 26 U A 0.000857
0 26 U C -0.000011
0 26 U U -0.000018
0 26 U G -0.000298
0 26 U - -0.000036
0 26 G A 0.000021
0 26 G C -0.000038
0 26 G U 0.000020
0 26 G G 0.000019
0 26 G - -0.000052
0 26 - A -0.000043
0 26 - C -0.000032
0 26 - U 0.000049
0 26 - G 0.000851
0 26 - - -0.000055
0 27 A A 0.000002
0 27 A C -0.000029
0 27 A U 0.000787
0 27 A G 0.001661
0 27 A - -0.000003
0 27 C A 0.000263
0 27 C C 0.006415
0 27 C U 0.005426
0 27 C G -0.051461
0 27 C - 0.000014
0 27 U A -0.000008
0 27 U C -0.000005
0 27 U U -0.088105
0 27 U G 0.002272
0 27 U - -0.000038
0 27 G A -0.000053
0 27 G C 0.000025
0 27 G U -0.000051
0 27 G G -0.000005
0 27 G - 0.000028
0 27 - A 0.000003
0 27 - C 0.000023
0 27 - U 0.000833
0 27 - G -0.000016
0 27 - - -0.000001
0 28 A A 0.000041
0 28 A C -0.000008
0 28 A U 0.000885
0 28 A G 0.000305
0 28 A - 0.000008
0 28 C A 0.001897
0 28 C C 0.002038
0 28 C U -0.020352
0 28 C G 0.000116
0 28 C - 0.001264
0 28 U A 0.000032
0 28 U C -0.000012
0 28 U U 0.001200
0 28 U G -0.000216
0 28 U - 0.000319
0 28 G A -0.000002
0 28 G C -0.000051
0 28 G U 0.000040
0 28 G G 0.000035
0 28 G - 0.000015
0 28 - A 0.000016
0 28 - C 0.000044
0 28 - U 0.000821
0 28 - G 0.000039
0 28 - - 0.000026
0 29 A A -0.000054
0 29 A C 0.000842
0 29 A U 0.000139
0 29 A G 0.000018
0 29 A - 0.000037
0 29 C A 0.000451
0 29 C C -0.002372
0 29 C U -0.006561
0 29 C G 0.002709
0 29 C - 0.001557
0 29 U A -0.000003
0 29 U C -0.000801
0 29 U U 0.000128
0 29 U G -0.000062
0 29 U - 0.000948
0 29 G A -0.000046
0 29 G C 0.000001
0 29 G U -0.000039
0 29 G G -0.000025
0 29 G - 0.000012
0 29 - A 0.000001
0 29 - C 0.000014
0 29 - U 0.000006
0 29 - G 0.000900
0 29 - - -0.000007
0 30 A A 0.000830
0 30 A C -0.000050
0 30 A U -0.000053
0 30 A G 0.000239
0 30 A - -0.000048
0 30 C A -0.006856
0 30 C C 0.001260
0 30 C U -0.000081
0 30 C G -0.000375
0 30 C - 0.000650
0 30 U A -0.000176
0 30 U C 0.000004
0 30 U U -0.000017
0 30 U G 0.000792
0 30 U - -0.000025
0 30 G A 0.000010
0 30 G C 0.000049
0 30 G U -0.000037
0 30 G G -0.000011
0 30 G - 0.000016
0 30 - A 0.001488
0 30 - C -0.000049
0 30 - U 0.000004
0 30 - G -0.000056
0 30 - - 0.000035
0 31 A A -0.000017
0 31 A C 0.000298
0 31 A U 0.001344
0 31 A G 0.000004
0 31 A - 0.000011
0 31 C A -0.000464
0 31 C C 0.006833
0 31 C U -0.001352
0 31 C G 0.000180
0 31 C - 0.001614
0 31 U A 0.000001
0 31 U C -0.000032
0 31 U U -0.023512
0 31 U G 0.000536
0 31 U - 0.000921
0 31 G A 0.000030
0 31 G C -0.000048
0 31 G U -0.000039
0 31 G G -0.000007
0 31 G - -0.000023
0 31 - A -0.000043
0 31 - C 0.000026
0 31 - U 0.000804
0 31 - G -0.000036
0 31 - - -0.000030
0 32 A A -0.000042
0 32 A C 0.000025
0 32 A U 0.000040
0 32 A G 0.002150
0 32 A - 0.000247
0 32 C A -0.000037
0 32 C C 0.000282
0 32 C U -0.000036
0 32 C G -0.006284
0 32 C - 0.000021
0 32 U A 0.000133
0 32 U C -0.000019
0 32 U U -0.000013
0 32 U G -0.001456
0 32 U - -0.000050
0 32 G A -0.000009
0 32 G C 0.000042
0 32 G U -0.000007
0 32 G G -0.000006
0 32 G - -0.000047
0 32 - A -0.000026
0 32 - C -0.000022
0 32 - U -0.000025
0 32 - G 0.001049
0 32 - - -0.000009
0 33 A A 0.000334
0 33 A C 0.000810
0 33 A U 0.000007
0 33 A G 0.001969
0 33 A - -0.000040
0 33 C A -0.000052
0 33 C C 0.004671
0 33 C U -0.000079
0 33 C G -0.296061
0 33 C - -0.000060
0 33 U A 0.000633
0 33 U C 0.000288
0 33 U U 0.000054
0 33 U G 0.000441
0 33 U - -0.000033
0 33 G A 0.000059
0 33 G C -0.000003
0 33 G U 0.000021
0 33 G G -0.000010
0 33 G - -0.000023
0 33 - A 0.000005
0 33 - C -0.000021
0 33 - U 0.000037
0 33 - G 0.000816
0 33 - - -0.000024
0 34 A A -0.000090
0 34 A C 0.000037
0 34 A U 0.000861
0 34 A G 0.001584
0 34 A - -0.000031
0 34 C A -0.000758
0 34 C C 0.000410
0 34 C U 0.000160
0 34 C G -0.034985
0 34 C - 0.000350
0 34 U A 0.001658
0 34 U C 0.000002
0 34 U U -0.000036
0 34 U G -0.000955
0 34 U - -0.000030
0 34 G A -0.000039
0 34 G C -0.000045
0 34 G U 0.000004
0 34 G G 0.000011
0 34 G - 0.000011
0 34 - A 0.000012
0 34 - C -0.000011
0 34 - U 0.000004
0 34 - G 0.001327
0 34 - - 0.000044
0 35 A A -0.000019
0 35 A C -0.000031
0 35 A U -0.000033
0 35 A G 0.002434
0 35 A - 0.000039
0 35 C A 0.000028
0 35 C C -0.000003
0 35 C U 0.000035
0 35 C G -0.002661
0 35 C - -0.000041
0 35 U A -0.000030
0 35 U C -0.000050
0 35 U U 0.000002
0 35 U G -0.001678
0 35 U - 0.000017
0 35 G A 0.000023
0 35 G C -0.000007
0 35 G U -0.000007
0 35 G G -0.000029
0 35 G - -0.000037
0 35 - A 0.000033
0 35 - C -0.000014
0 35 - U 0.000015
0 35 - G 0.000795
0 35 - - -0.000047
0 36 A A 0.000014
0 36 A C 0.001949
0 36 A U -0.000042
0 36 A G -0.000039
0 36 A - -0.000038
0 36 C A 0.000272
0 36 C C -0.004683
0 36 C U -0.002309
0 36 C G 0.001161
0 36 C - 0.000011
0 36 U A -0.000016
0 36 U C -0.002129
0 36 U U 0.000320
0 36 U G -0.000012
0 36 U - -0.000010
0 36 G A -0.000051
0 36 G C 0.000025
0 36 G U -0.000031
0 36 G G 0.000040
0 36 G - -0.000033
0 36 - A 0.000044
0 36 - C 0.000772
0 36 - U 0.000043
0 36 - G -0.000044
0 36 - - -0.000049
0 37 A A -0.000016
0 37 A C 0.003380
0 37 A U -0.000007
0 37 A G -0.000042
0 37 A - -0.000004
0 37 C A 0.000023
0 37 C C -0.023738
0 37 C U 0.001115
0 37 C G 0.000168
0 37 C - 0.000005
0 37 U A 0.000004
0 37 U C 0.001016
0 37 U U -0.000377
0 37 U G -0.000043
0 37 U - 0.000011
0 37 G A 0.000041
0 37 G C -0.000049
0 37 G U 0.000035
0 37 G G 0.000005
0 37 G - 0.000029
0 37 - A 0.000811
0 37 - C -0.000039
0 37 - U 0.000010
0 37 - G -0.000018
0 37 - - -0.000001
0 38 A A -0.000044
0 38 A C -0.000054
0 38 A U 0.000001
0 38 A G 0.001997
0 38 A - 0.000001
0 38 C A 0.000137
0 38 C C -0.000048
0 38 C U 0.000825
0 38 C G -0.003706
0 38 C - 0.000021
0 38 U A -0.000020
0 38 U C -0.000007
0 38 U U -0.000032
0 38 U G -0.002374
0 38 U - -0.000036
0 38 G A 0.000001
0 38 G C 0.000004
0 38 G U 0.000006
0 38 G G -0.000061
0 38 G - 0.000009
0 38 - A 0.000020
0 38 - C 0.000012
0 38 - U 0.000001
0 38 - G 0.000807
0 38 - - -0.000047
0 39 A A 0.000027
0 39 A C 0.000010
0 39 A U 0.000025
0 39 A G 0.001704
0 39 A - 0.000002
0 39 C A 0.000028
0 39 C C 0.000081
0 39 C U 0.000027
0 39 C G -0.004532
0 39 C - 0.000007
0 39 U A 0.000001
0 39 U C -0.000032
0 39 U U 0.000036
0 39 U G -0.015439
0 39 U - -0.000044
0 39 G A 0.000010
0 39 G C -0.000044
0 39 G U 0.000043
0 39 G G -0.000019
0 39 G - 0.000037
0 39 - A 0.000046
0 39 - C -0.000041
0 39 - U -0.000041
0 39 - G 0.000752
0 39 - - -0.000040
0 40 A A -0.000031
0 40 A C 0.000045
0 40 A U 0.000022
0 40 A G 0.003749
0 40 A - -0.000011
0 40 C A 0.000020
0 40 C C 0.000509
0 40 C U -0.000027
0 40 C G -0.004047
0 40 C - 0.000022
0 40 U A 0.000023
0 40 U C -0.000002
0 40 U U -0.000040
0 40 U G -0.012272
0 40 U - 0.000033
0 40 G A 0.000006
0 40 G C 0.000037
0 40 G U 0.000008
0 40 G G -0.000049
0 40 G - -0.000012
0 40 - A 0.000003
0 40 - C -0.000043
0 40 - U -0.000029
0 40 - G 0.000819
0 40 - - 0.000006
0 41 A A 0.000045
0 41 A C 0.002343
0 41 A U -0.000057
0 41 A G 0.000332
0 41 A - 0.000030
0 41 C A 0.000491
0 41 C C -0.005191
0 41 C U -0.000185
0 41 C G -0.000038
0 41 C - 0.000028
0 41 U A 0.000037
0 41 U C -0.008247
0 41 U U -0.000028
0 41 U G -0.000026
0 41 U - 0.000025
0 41 G A -0.000043
0 41 G C -0.000028
0 41 G U 0.000041
0 41 G G -0.000023
0 41 G - 0.000036
0 41 - A 0.000028
0 41 - C 0.000731
0 41 - U -0.000008
0 41 - G -0.000022
0 41 - - -0.000045
0 42 A A 0.000064
0 42 A C 0.000755
0 42 A U 0.000047
0 42 A G 0.000848
0 42 A - 0.000021
0 42 C A -0.000044
0 42 C C -0.042150
0 42 C U 0.000044
0 42 C G 0.000401
0 42 C - -0.000008
0 42 U A 0.000024
0 42 U C 0.002358
0 42 U U -0.328179
0 42 U G 0.000034
0 42 U - -0.000028
0 42 G A 0.000043
0 42 G C 0.003559
0 42 G U 0.000013
0 42 G G 0.000048
0 42 G - -0.000032
0 42 - A 0.000023
0 42 - C 0.000879
0 42 - U 0.000011
0 42 - G -0.000013
0 42 - - -0.000017
0 43 A A 0.001047
0 43 A C 0.000003
0 43 A U 0.000008
0 43 A G 0.000576
0 43 A - 0.000010
0 43 C A 0.000745
0 43 C C 0.000609
0 43 C U -0.000729
0 43 C G -0.003910
0 43 C - 0.000471
0 43 U A 0.000493
0 43 U C -0.000010
0 43 U U 0.000008
0 43 U G 0.000599
0 43 U - -0.000007
0 43 G A -0.000043
0 43 G C 0.000002
0 43 G U -0.000031
0 43 G G 0.000020
0 43 G - -0.000013
0 43 - A -0.000000
0 43 - C -0.000012
0 43 - U -0.000016
0 43 - G 0.000820
0 43 - - 0.000042
0 44 A A 0.000112
0 44 A C 0.001176
0 44 A U 0.000925
0 44 A G -0.000062
0 44 A - 0.000000
0 44 C A 0.003363
0 44 C C -0.006659
0 44 C U -0.012423
0 44 C G 0.011074
0 44 C - 0.000512
0 44 U A -0.000008
0 44 U C -0.000257
0 44 U U 0.001370
0 44 U G -0.000042
0 44 U - 0.000009
0 44 G A 0.000039
0 44 G C 0.000016
0 44 G U -0.000046
0 44 G G -0.000046
0 44 G - 0.000035
0 44 - A -0.000037
0 44 - C 0.000765
0 44 - U -0.000008
0 44 - G -0.000010
0 44 - - 0.000020
0 45 A A 0.002915
0 45 A C 0.000015
0 45 A U -0.000024
0 45 A G -0.000030
0 45 A - -0.000010
0 45 C A -0.005997
0 45 C C -0.000156
0 45 C U 0.001299
0 45 C G 0.005196
0 45 C - -0.000366
0 45 U A 0.000007
0 45 U C 0.001079
0 45 U U -0.000030
0 45 U G 0.000016
0 45 U - -0.000010
0 45 G A -0.000030
0 45 G C 0.000003
0 45 G U 0.000013
0 45 G G -0.000050
0 45 G - 0.000009
0 45 - A 0.001174
0 45 - C -0.000046
0 45 - U 0.000022
0 45 - G 0.000034
0 45 - - 0.000005
0 46 A A 0.001577
0 46 A C 0.001187
0 46 A U -0.000056
0 46 A G -0.000037
0 46 A - 0.000011
0 46 C A 0.003088
0 46 C C -0.000157
0 46 C U -0.000116
0 46 C G -0.003480
0 46 C - -0.000468
0 46 U A -0.001024
0 46 U C 0.001323
0 46 U U -0.000003
0 46 U G 0.000875
0 46 U - 0.000031
0 46 G A 0.000001
0 46 G C 0.000029
0 46 G U 0.000034
0 46 G G -0.000013
0 46 G - -0.000028
0 46 - A 0.000011
0 46 - C -0.000010
0 46 - U 0.000034
0 46 - G 0.000827
0 46 - - 0.000037
0 47 A A -0.000039
0 47 A C 0.000289
0 47 A U 0.000851
0 47 A G -0.000008
0 47 A - -0.000018
0 47 C A -0.001068
0 47 C C 0.001478
0 47 C U 0.005630
0 47 C G -0.000541
0 47 C - -0.000285
0 47 U A 0.001150
0 47 U C 0.000036
0 47 U U -0.124128
0 47 U G -0.000032
0 47 U - 0.000956
0 47 G A -0.000006
0 47 G C -0.000011
0 47 G U 0.000042
0 47 G G 0.000022
0 47 G - 0.000009
0 47 - A 0.000869
0 47 - C -0.000010
0 47 - U -0.000022
0 47 - G -0.000022
0 47 - - 0.000044
0 48 A A 0.000828
0 48 A C -0.000035
0 48 A U -0.000042
0 48 A G -0.000046
0 48 A - -0.000026
0 48 C A -0.003925
0 48 C C -0.000274
0 48 C U 0.002645
0 48 C G -0.000335
0 48 C - 0.000874
0 48 U A -0.000060
0 48 U C 0.000412
0 48 U U -0.000145
0 48 U G 0.000010
0 48 U - 0.000564
0 48 G A 0.000027
0 48 G C -0.000000
0 48 G U -0.000007
0 48 G G -0.000032
0 48 G - 0.000020
0 48 - A 0.000882
0 48 - C 0.000024
0 48 - U 0.000046
0 48 - G 0.000021
0 48 - - -0.000000
0 49 A A -0.000055
0 49 A C 0.000838
0 49 A U 0.000160
0 49 A G 0.001807
0 49 A - 0.000007
0 49 C A -0.000882
0 49 C C 0.003617
0 49 C U 0.000895
0 49 C G -0.005473
0 49 C - -0.000326
0 49 U A 0.000582
0 49 U C -0.000072
0 49 U U 0.000016
0 49 U G 0.000438
0 49 U - -0.000032
0 49 G A 0.000035
0 49 G C 0.000018
0 49 G U -0.000001
0 49 G G 0.000019
0 49 G - -0.000034
0 49 - A -0.000021
0 49 - C 0.000027
0 49 - U -0.000005
0 49 - G 0.000829
0 49 - - -0.000002
0 50 A A 0.000340
0 50 A C 0.000670
0 50 A U 0.000758
0 50 A G 0.000275
0 50 A - -0.000027
0 50 C A 0.000724
0 50 C C 0.000386
0 50 C U -0.003039
0 50 C G 0.003737
0 50 C - -0.000020
0 50 U A -0.000022
0 50 U C 0.000665
0 50 U U 0.000439
0 50 U G -0.000056
0 50 U - -0.000045
0 50 G A -0.000026
0 50 G C 0.000021
0 50 G U -0.000005
0 50 G G -0.000049
0 50 G - -0.000056
0 50 - A 0.000021
0 50 - C 0.000756
0 50 - U 0.000046
0 50 - G 0.000013
0 50 - - 0.000009
0 51 A A -0.000005
0 51 A C 0.000795
0 51 A U 0.000021
0 51 A G 0.000730
0 51 A - -0.000002
0 51 C A 0.000475
0 51 C C 0.000407
0 51 C U 0.000011
0 51 C G -0.001063
0 51 C - 0.000025
0 51 U A 0.000264
0 51 U C 0.000037
0 51 U U 0.000201
0 51 U G -0.001391
0 51 U - -0.000035
0 51 G A -0.000048
0 51 G C -0.000002
0 51 G U 0.000025
0 51 G G -0.000055
0 51 G - 0.000039
0 51 - A -0.000041
0 51 - C 0.000022
0 51 - U 0.000032
0 51 - G 0.000816
0 51 - - -0.000040
0 52 A A 0.000021
0 52 A C 0.000436
0 52 A U 0.000020
0 52 A G 0.002422
0 52 A - -0.000046
0 52 C A 0.000191
0 52 C C 0.000024
0 52 C U 0.000458
0 52 C G -0.004166
0 52 C - -0.000058
0 52 U A -0.000030
0 52 U C -0.000037
0 52 U U 0.000512
0 52 U G -0.047168
0 52 U - 0.000001
0 52 G A -0.000007
0 52 G C -0.000033
0 52 G U -0.000046
0 52 G G 0.000000
0 52 G - -0.000047
0 52 - A -0.000034
0 52 - C 0.000021
0 52 - U 0.000004
0 52 - G 0.000767
0 52 - - 0.000020
0 53 A A 0.000030
0 53 A C 0.003800
0 53 A U 0.000031
0 53 A G 0.000039
0 53 A - 0.000019
0 53 C A -0.000009
0 53 C C -0.002668
0 53 C U 0.000702
0 53 C G 0.000006
0 53 C - 0.000002
0 53 U A -0.000004
0 53 U C -0.010538
0 53 U U 0.000035
0 53 U G 0.000002
0 53 U - 0.000016
0 53 G A 0.000005
0 53 G C -0.000041
0 53 G U 0.000027
0 53 G G -0.000027
0 53 G - 0.000029
0 53 - A -0.000013
0 53 - C 0.000773
0 53 - U -0.000014
0 53 - G 0.000037
0 53 - - 0.000003
0 54 A A 0.002073
0 54 A C -0.000022
0 54 A U -0.000008
0 54 A G 0.000001
0 54 A - -0.000025
0 54 C A -0.001535
0 54 C C -0.000038
0 54 C U -0.000018
0 54 C G -0.000042
0 54 C - -0.000021
0 54 U A -0.009088
0 54 U C 0.000047
0 54 U U 0.000061
0 54 U G -0.000022
0 54 U - 0.000042
0 54 G A -0.000010
0 54 G C -0.000001
0 54 G U -0.000004
0 54 G G -0.000007
0 54 G - 0.000047
0 54 - A 0.000727
0 54 - C -0.000006
0 54 - U -0.000040
0 54 - G -0.000022
0 54 - - 0.000047
0 55 A A -0.000023
0 55 A C 0.000026
0 55 A U 0.001400
0 55 A G 0.000638
0 55 A - 0.000012
0 55 C A -0.006228
0 55 C C 0.001075
0 55 C U -0.000021
0 55 C G 0.000046
0 55 C - -0.000000
0 55 U A 0.000103
0 55 U C 0.000450
0 55 U U 0.000012
0 55 U G -0.053780
0 55 U - 0.000031
0 55 G A 0.000030
0 55 G C -0.000024
0 55 G U 0.000010
0 55 G G -0.000015
0 55 G - -0.000011
0 55 - A 0.000048
0 55 - C -0.000041
0 55 - U 0.000043
0 55 - G 0.000826
0 55 - - 0.000028
0 56 A A 0.000035
0 56 A C 0.003527
0 56 A U 0.000033
0 56 A G -0.000007
0 56 A - 0.000035
0 56 C A 0.000045
0 56 C C -0.000767
0 56 C U -0.007648
0 56 C G 0.000107
0 56 C - -0.000020
0 56 U A -0.000047
0 56 U C -0.010285
0 56 U U 0.001337
0 56 U G -0.000045
0 56 U - -0.000045
0 56 G A -0.000047
0 56 G C -0.000056
0 56 G U -0.000041
0 56 G G 0.000049
0 56 G - -0.000034
0 56 - A 0.000003
0 56 - C 0.000789
0 56 - U -0.000012
0 56 - G 0.000004
0 56 - - -0.000016
0 57 A A 0.003247
0 57 A C -0.000008
0 57 A U 0.000025
0 57 A G 0.000003
0 57 A - 0.000044
0 57 C A -0.001222
0 57 C C 0.000046
0 57 C U -0.000021
0 57 C G -0.000122
0 57 C - 0.000014
0 57 U A -0.018115
0 57 U C -0.000030
0 57 U U -0.000043
0 57 U G 0.000407
0 57 U - 0.000426
0 57 G A -0.000016
0 57 G C -0.000044
0 57 G U -0.000039
0 57 G G -0.000024
0 57 G - 0.000009
0 57 - A 0.000760
0 57 - C -0.000003
0 57 - U 0.000041
0 57 - G -0.000036
0 57 - - -0.000046
0 58 A A 0.000029
0 58 A C 0.000020
0 58 A U -0.000036
0 58 A G 0.002681
0 58 A - 0.000024
0 58 C A -0.000010
0 58 C C -0.000003
0 58 C U -0.000043
0 58 C G -0.001331
0 58 C - 0.000003
0 58 U A 0.000041
0 58 U C -0.000040
0 58 U U -0.000025
0 58 U G -0.009456
0 58 U - -0.000025
0 58 G A -0.000031
0 58 G C -0.000042
0 58 G U -0.000042
0 58 G G -0.000017
0 58 G - -0.000041
0 58 - A 0.000010
0 58 - C -0.000016
0 58 - U 0.000010
0 58 - G 0.000728
0 58 - - -0.000025
0 59 A A 0.002217
0 59 A C 0.000015
0 59 A U 0.000011
0 59 A G -0.000011
0 59 A - 0.000002
0 59 C A -0.005346
0 59 C C 0.000467
0 59 C U 0.000240
0 59 C G -0.001429
0 59 C - -0.000037
0 59 U A 0.001287
0 59 U C 0.000021
0 59 U U 0.000040
0 59 U G -0.000875
0 59 U - 0.000011
0 59 G A -0.000024
0 59 G C -0.000039
0 59 G U 0.000001
0 59 G G -0.000009
0 59 G - -0.000039
0 59 - A 0.000773
0 59 - C -0.000022
0 59 - U 0.000008
0 59 - G 0.000012
0 59 - - 0.000028
0 60 A A 0.000837
0 60 A C -0.000031
0 60 A U 0.002188
0 60 A G -0.000034
0 60 A - 0.000005
0 60 C A -0.004435
0 60 C C 0.003168
0 60 C U -0.028530
0 60 C G 0.000812
0 60 C - -0.000045
0 60 U A -0.000005
0 60 U C -0.000003
0 60 U U 0.000807
0 60 U G 0.000246
0 60 U - 0.000032
0 60 G A -0.000047
0 60 G C 0.000039
0 60 G U -0.000019
0 60 G G -0.000042
0 60 G - -0.000047
0 60 - A 0.000044
0 60 - C 0.000041
0 60 - U 0.000023
0 60 - G 0.000897
0 60 - - 0.000029
0 61 A A -0.000042
0 61 A C 0.000046
0 61 A U 0.002601
0 61 A G -0.000027
0 61 A - 0.000044
0 61 C A -0.002373
0 61 C C 0.000726
0 61 C U -0.000487
0 61 C G 0.001000
0 61 C - -0.000047
0 61 U A -0.000034
0 61 U C 0.000027
0 61 U U -0.025230
0 61 U G 0.000874
0 61 U - -0.000042
0 61 G A 0.000026
0 61 G C 0.000019
0 61 G U -0.000035
0 61 G G 0.000021
0 61 G - -0.000024
0 61 - A -0.000025
0 61 - C -0.000049
0 61 - U -0.000049
0 61 - G 0.000808
0 61 - - -0.000026
0 62 A A 0.000011
0 62 A C 0.000040
0 62 A U -0.000039
0 62 A G 0.000984
0 62 A - 0.000885
0 62 C A 0.004469
0 62 C C -0.001688
0 62 C U -0.002971
0 62 C G -0.000615
0 62 C - 0.005623
0 62 U A -0.019072
0 62 U C 0.000528
0 62 U U -0.000023
0 62 U G 0.000156
0 62 U - -0.000023
0 62 G A -0.000057
0 62 G C 0.000036
0 62 G U 0.000010
0 62 G G -0.000051
0 62 G - 0.000045
0 62 - A 0.000038
0 62 - C -0.000039
0 62 - U -0.000045
0 62 - G 0.000829
0 62 - - -0.000027
0 63 A A 0.000793
0 63 A C 0.000017
0 63 A U 0.000630
0 63 A G -0.000040
0 63 A - -0.000053
0 63 C A 0.000359
0 63 C C 0.000249
0 63 C U -0.000633
0 63 C G -0.002569
0 63 C - 0.003099
0 63 U A -0.000961
0 63 U C 0.000414
0 63 U U 0.000698
0 63 U G -0.000050
0 63 U - 0.000037
0 63 G A -0.000048
0 63 G C 0.000042
0 63 G U 0.000011
0 63 G G 0.000042
0 63 G - 0.000041
0 63 - A 0.000027
0 63 - C -0.000031
0 63 - U 0.000779
0 63 - G -0.000002
0 63 - - -0.000005
0 64 A A 0.000025
0 64 A C 0.000005
0 64 A U -0.000009
0 64 A G 0.000024
0 64 A - 0.000824
0 64 C A -0.026400
0 64 C C 0.000977
0 64 C U -0.001289
0 64 C G 0.000349
0 64 C - 0.000268
0 64 U A -0.000088
0 64 U C -0.000043
0 64 U U 0.001137
0 64 U G 0.000511
0 64 U - -0.000061
0 64 G A 0.000034
0 64 G C 0.000028
0 64 G U -0.000001
0 64 G G -0.000001
0 64 G - 0.000036
0 64 - A 0.000890
0 64 - C 0.000040
0 64 - U -0.000014
0 64 - G 0.000005
0 64 - - -0.000040
0 65 A A -0.000063
0 65 A C 0.000022
0 65 A U 0.001707
0 65 A G -0.000013
0 65 A - 0.000953
0 65 C A -0.002130
0 65 C C 0.000897
0 65 C U -0.004651
0 65 C G 0.002843
0 65 C - 0.002426
0 65 U A -0.000329
0 65 U C 0.001302
0 65 U U 0.000035
0 65 U G -0.000054
0 65 U - -0.000017
0 65 G A -0.000010
0 65 G C -0.000022
0 65 G U 0.000040
0 65 G G 0.000010
0 65 G - -0.000033
0 65 - A 0.000037
0 65 - C -0.000042
0 65 - U 0.000002
0 65 - G 0.000846
0 65 - - -0.000002
0 66 A A 0.000262