# NB_STEPS 3000
# UP_FREQ 1000
# TEMP 1.000000
# LAMBDA 0.010000
# ID_THRES 1.000000
# ALPHA 1.000000
0 0 A A -0.010614
0 0 C C 0.001507
0 0 U U -0.002079
0 0 G G -0.001423
0 0 - - 0.018373
0 1 A A -0.002434
0 1 A C -0.059056
0 1 A U -0.002467
0 1 A G 0.007746
0 1 A - 0.000129
0 1 C A -0.002822
0 1 C C 0.003586
0 1 C U 0.141534
0 1 C G -0.224672
0 1 C - -0.000002
0 1 U A 0.119133
0 1 U C 0.017579
0 1 U U -0.029713
0 1 U G -0.222068
0 1 U - 0.000006
0 1 G A -0.381186
0 1 G C -0.110398
0 1 G U -0.000837
0 1 G G 0.724122
0 1 G - 0.008654
0 1 - A 0.000485
0 1 - C 0.000001
0 1 - U 0.000007
0 1 - G 0.002483
0 1 - - 0.000003
0 2 A A 0.000235
0 2 A C 0.009109
0 2 A U -0.036767
0 2 A G 0.036556
0 2 A - 0.000010
0 2 C A 0.227813
0 2 C C -0.285590
0 2 C U 0.058585
0 2 C G -0.000634
0 2 C - 0.010775
0 2 U A 0.002675
0 2 U C 0.000891
0 2 U U -0.001748
0 2 U G 0.000532
0 2 U - 0.000009
0 2 G A -0.224456
0 2 G C 0.037592
0 2 G U 0.057707
0 2 G G -0.009866
0 2 G - 0.006597
0 2 - A 0.000012
0 2 - C 0.006176
0 2 - U 0.000005
0 2 - G -0.000005
0 2 - - -0.000002
0 3 A A -0.121363
0 3 A C 0.004061
0 3 A U -0.000151
0 3 A G 0.164755
0 3 A - 0.000006
0 3 C A 0.048436
0 3 C C 0.001284
0 3 C U 0.093842
0 3 C G -0.302740
0 3 C - 0.000513
0 3 U A 0.020028
0 3 U C 0.001311
0 3 U U 0.000287
0 3 U G -0.002635
0 3 U - 0.000002
0 3 G A 0.000597
0 3 G C 0.001415
0 3 G U -0.004766
0 3 G G 0.001346
0 3 G - 0.004528
0 3 - A 0.000004
0 3 - C -0.000004
0 3 - U 0.000007
0 3 - G 0.044929
0 3 - - 0.000003
0 4 A A 0.000201
0 4 A C -0.006702
0 4 A U 0.001469
0 4 A G 0.002040
0 4 A - 0.000002
0 4 C A 0.011688
0 4 C C 0.005533
0 4 C U -0.024370
0 4 C G 0.079452
0 4 C - 0.000410
0 4 U A 0.002071
0 4 U C -0.000387
0 4 U U -0.042778
0 4 U G 0.000902
0 4 U - -0.000002
0 4 G A -0.190504
0 4 G C 0.004080
0 4 G U 0.092750
0 4 G G -0.001289
0 4 G - 0.000740
0 4 - A 0.000006
0 4 - C 0.003515
0 4 - U 0.000594
0 4 - G 0.000002
0 4 - - 0.000010
0 5 A A -0.000325
0 5 A C 0.001373
0 5 A U -0.134213
0 5 A G 0.047249
0 5 A - 0.000989
0 5 C A -0.000401
0 5 C C -0.000003
0 5 C U 0.016383
0 5 C G -0.018130
0 5 C - 0.000700
0 5 U A -0.000007
0 5 U C 0.000001
0 5 U U 0.000261
0 5 U G -0.000803
0 5 U - 0.000002
0 5 G A 0.000296
0 5 G C 0.000775
0 5 G U -0.000465
0 5 G G -0.073128
0 5 G - 0.000264
0 5 - A 0.000509
0 5 - C -0.000004
0 5 - U 0.000003
0 5 - G 0.111826
0 5 - - 0.000008
0 6 A A -0.051158
0 6 A C -0.000005
0 6 A U -0.000004
0 6 A G 0.002643
0 6 A - 0.000002
0 6 C A 0.000417
0 6 C C -0.000005
0 6 C U 0.000008
0 6 C G -0.002166
0 6 C - -0.000005
0 6 U A -0.000005
0 6 U C -0.000000
0 6 U U 0.000009
0 6 U G -0.001985
0 6 U - 0.000003
0 6 G A -0.000013
0 6 G C -0.000002
0 6 G U 0.002990
0 6 G G -0.002516
0 6 G - -0.000002
0 6 - A -0.000004
0 6 - C -0.000004
0 6 - U 0.000009
0 6 - G 0.039422
0 6 - - -0.000001
0 7 A A 0.000008
0 7 A C -0.000005
0 7 A U 0.000003
0 7 A G -0.023025
0 7 A - -0.000003
0 7 C A -0.000006
0 7 C C -0.000002
0 7 C U 0.000002
0 7 C G 0.000652
0 7 C - -0.000006
0 7 U A -0.000008
0 7 U C -0.000007
0 7 U U 0.000001
0 7 U G -0.001464
0 7 U - 0.000004
0 7 G A -0.000004
0 7 G C -0.000007
0 7 G U 0.000735
0 7 G G -0.001038
0 7 G - 0.000002
0 7 - A 0.000009
0 7 - C -0.000009
0 7 - U 0.000002
0 7 - G 0.020989
0 7 - - -0.000007
0 8 A A -0.013394
0 8 A C -0.000002
0 8 A U -0.000002
0 8 A G 0.000009
0 8 A - -0.000008
0 8 C A -0.002435
0 8 C C -0.000009
0 8 C U 0.000045
0 8 C G 0.000628
0 8 C - 0.000571
0 8 U A -0.002003
0 8 U C 0.000009
0 8 U U -0.000008
0 8 U G -0.000008
0 8 U - -0.000003
0 8 G A -0.009810
0 8 G C 0.000007
0 8 G U -0.000002
0 8 G G 0.000006
0 8 G - -0.000001
0 8 - A 0.027185
0 8 - C -0.000008
0 8 - U -0.000008
0 8 - G -0.000002
0 8 - - -0.000005
0 9 A A -0.000009
0 9 A C 0.000005
0 9 A U 0.000007
0 9 A G -0.003613
0 9 A - -0.000002
0 9 C A 0.000349
0 9 C C 0.000001
0 9 C U -0.000001
0 9 C G -0.000927
0 9 C - 0.000006
0 9 U A 0.000004
0 9 U C 0.000008
0 9 U U 0.000001
0 9 U G -0.001707
0 9 U - -0.000002
0 9 G A -0.000008
0 9 G C -0.000005
0 9 G U -0.000002
0 9 G G -0.011242
0 9 G - 0.000005
0 9 - A 0.000002
0 9 - C -0.000002
0 9 - U -0.000002
0 9 - G 0.031916
0 9 - - 0.000002
0 10 A A -0.021853
0 10 A C 0.000002
0 10 A U -0.000000
0 10 A G 0.000659
0 10 A - 0.000003
0 10 C A 0.000247
0 10 C C 0.000001
0 10 C U -0.000004
0 10 C G 0.000006
0 10 C - 0.000000
0 10 U A -0.003654
0 10 U C 0.000455
0 10 U U -0.000007
0 10 U G -0.000009
0 10 U - 0.000001
0 10 G A -0.000718
0 10 G C -0.000008
0 10 G U -0.000009
0 10 G G -0.000008
0 10 G - 0.000007
0 10 - A 0.033519
0 10 - C -0.000008
0 10 - U -0.000008
0 10 - G -0.000008
0 10 - - -0.000006
0 11 A A 0.003964
0 11 A C -0.000013
0 11 A U -0.000007
0 11 A G -0.008456
0 11 A - -0.000001
0 11 C A 0.000049
0 11 C C 0.000483
0 11 C U 0.000006
0 11 C G -0.022980
0 11 C - 0.000004
0 11 U A -0.008180
0 11 U C 0.000006
0 11 U U -0.000007
0 11 U G 0.001520
0 11 U - 0.000003
0 11 G A -0.000060
0 11 G C 0.000904
0 11 G U 0.000902
0 11 G G -0.001582
0 11 G - 0.000001
0 11 - A -0.000009
0 11 - C -0.000007
0 11 - U 0.000007
0 11 - G 0.010047
0 11 - - -0.000008
0 12 A A -0.101154
0 12 A C 0.013427
0 12 A U 0.036653
0 12 A G 0.000774
0 12 A - 0.000616
0 12 C A 0.005011
0 12 C C 0.000360
0 12 C U -0.104228
0 12 C G 0.014411
0 12 C - 0.147833
0 12 U A 0.006632
0 12 U C 0.033300
0 12 U U -0.004521
0 12 U G 0.000042
0 12 U - -0.000003
0 12 G A 0.084971
0 12 G C -0.166448
0 12 G U 0.017398
0 12 G G 0.011390
0 12 G - -0.073317
0 12 - A -0.000010
0 12 - C 0.001604
0 12 - U 0.000005
0 12 - G -0.000007
0 12 - - 0.000002
0 13 A A -0.044951
0 13 A C -0.038450
0 13 A U -0.001203
0 13 A G 0.163880
0 13 A - 0.000985
0 13 C A 0.003106
0 13 C C -0.001587
0 13 C U -0.004134
0 13 C G -0.002802
0 13 C - 0.002073
0 13 U A 0.000487
0 13 U C 0.002551
0 13 U U -0.000034
0 13 U G -0.093842
0 13 U - -0.000001
0 13 G A 0.002108
0 13 G C -0.021998
0 13 G U 0.002261
0 13 G G 0.002466
0 13 G - 0.000444
0 13 - A -0.000006
0 13 - C 0.024920
0 13 - U 0.000734
0 13 - G -0.000012
0 13 - - -0.000004
0 14 A A 0.000941
0 14 A C 0.192551
0 14 A U -0.078914
0 14 A G -0.000601
0 14 A - 0.000003
0 14 C A 0.000486
0 14 C C -0.075704
0 14 C U 0.036935
0 14 C G -0.000013
0 14 C - 0.000010
0 14 U A -0.000002
0 14 U C -0.005930
0 14 U U 0.007017
0 14 U G 0.000848
0 14 U - -0.000002
0 14 G A 0.001290
0 14 G C -0.007665
0 14 G U -0.117981
0 14 G G 0.001825
0 14 G - -0.000000
0 14 - A 0.000477
0 14 - C 0.022854
0 14 - U -0.000008
0 14 - G 0.000005
0 14 - - 0.000001
0 15 A A -0.029707
0 15 A C -0.001234
0 15 A U 0.001638
0 15 A G -0.012117
0 15 A - -0.000012
0 15 C A 0.440930
0 15 C C -0.001622
0 15 C U -0.087805
0 15 C G 0.000667
0 15 C - -0.000001
0 15 U A -0.072593
0 15 U C -0.106210
0 15 U U 0.000837
0 15 U G 0.099195
0 15 U - -0.000000
0 15 G A 0.000928
0 15 G C 0.000743
0 15 G U -0.009093
0 15 G G -0.199724
0 15 G - 0.000248
0 15 - A -0.000009
0 15 - C -0.000008
0 15 - U -0.000006
0 15 - G 0.000249
0 15 - - 0.000747
0 16 A A 0.000142
0 16 A C 0.000102
0 16 A U -0.070643
0 16 A G 0.038572
0 16 A - -0.000002
0 16 C A 0.000357
0 16 C C -0.018398
0 16 C U 0.013659
0 16 C G -0.002593
0 16 C - 0.004634
0 16 U A -0.000153
0 16 U C 0.000286
0 16 U U 0.031334
0 16 U G -0.012864
0 16 U - 0.001534
0 16 G A 0.004470
0 16 G C 0.004766
0 16 G U -0.004778
0 16 G G -0.026184
0 16 G - 0.001243
0 16 - A 0.000007
0 16 - C 0.001395
0 16 - U 0.000005
0 16 - G -0.000002
0 16 - - -0.000008
0 17 A A 0.001946
0 17 A C 0.000043
0 17 A U -0.000259
0 17 A G 0.345595
0 17 A - -0.119477
0 17 C A -0.001543
0 17 C C 0.008268
0 17 C U 0.036680
0 17 C G -0.260943
0 17 C - 0.101677
0 17 U A 0.037462
0 17 U C -0.100113
0 17 U U -0.017620
0 17 U G 0.031813
0 17 U - 0.007615
0 17 G A 0.000460
0 17 G C 0.005514
0 17 G U 0.030396
0 17 G G -0.195506
0 17 G - 0.000101
0 17 - A 0.000856
0 17 - C 0.003200
0 17 - U -0.000001
0 17 - G 0.000511
0 17 - - 0.000002
0 18 A A 0.000576
0 18 A C 0.034218
0 18 A U -0.042101
0 18 A G 0.021946
0 18 A - -0.116317
0 18 C A 0.005055
0 18 C C -0.004866
0 18 C U 0.096493
0 18 C G -0.129798
0 18 C - 0.066257
0 18 U A -0.000075
0 18 U C -0.000138
0 18 U U -0.000429
0 18 U G 0.001649
0 18 U - -0.000116
0 18 G A -0.003493
0 18 G C -0.056732
0 18 G U 0.011604
0 18 G G 0.081665
0 18 G - -0.001827
0 18 - A 0.000751
0 18 - C 0.000513
0 18 - U 0.000003
0 18 - G 0.000003
0 18 - - 0.000004
0 19 A A -0.002830
0 19 A C 0.000420
0 19 A U -0.100228
0 19 A G 0.001207
0 19 A - 0.012278
0 19 C A 0.004849
0 19 C C 0.004098
0 19 C U 0.009782
0 19 C G -0.002916
0 19 C - 0.026680
0 19 U A -0.013018
0 19 U C -0.000082
0 19 U U -0.004007
0 19 U G 0.031466
0 19 U - -0.000484
0 19 G A 0.042927
0 19 G C -0.005426
0 19 G U -0.003377
0 19 G G -0.024429
0 19 G - 0.012366
0 19 - A 0.000005
0 19 - C 0.000005
0 19 - U 0.000481
0 19 - G 0.000002
0 19 - - 0.000688
0 20 A A 0.000631
0 20 A C 0.001408
0 20 A U -0.017268
0 20 A G -0.000015
0 20 A - -0.000219
0 20 C A 0.000438
0 20 C C -0.002283
0 20 C U 0.008513
0 20 C G -0.000542
0 20 C - -0.001346
0 20 U A -0.001480
0 20 U C -0.000017
0 20 U U -0.000629
0 20 U G 0.000225
0 20 U - 0.001608
0 20 G A -0.008486
0 20 G C -0.001616
0 20 G U 0.001476
0 20 G G -0.000300
0 20 G - 0.010136
0 20 - A 0.000004
0 20 - C 0.000001
0 20 - U -0.000002
0 20 - G 0.000463
0 20 - - 0.000705
0 21 A A -0.008586
0 21 A C -0.000389
0 21 A U -0.000564
0 21 A G 0.001531
0 21 A - 0.000328
0 21 C A 0.018086
0 21 C C -0.006090
0 21 C U 0.050373
0 21 C G -0.000336
0 21 C - -0.008045
0 21 U A -0.005033
0 21 U C -0.002032
0 21 U U -0.000035
0 21 U G 0.002582
0 21 U - 0.005465
0 21 G A -0.010525
0 21 G C -0.000079
0 21 G U -0.056880
0 21 G G 0.000973
0 21 G - 0.021676
0 21 - A 0.000006
0 21 - C 0.000001
0 21 - U 0.001474
0 21 - G -0.000005
0 21 - - 0.000003
0 22 A A 0.000863
0 22 A C -0.000047
0 22 A U -0.022269
0 22 A G 0.001169
0 22 A - 0.002906
0 22 C A -0.001113
0 22 C C -0.000315
0 22 C U 0.060348
0 22 C G 0.001069
0 22 C - -0.007065
0 22 U A -0.000611
0 22 U C 0.001220
0 22 U U 0.002914
0 22 U G -0.045461
0 22 U - 0.003133
0 22 G A -0.001722
0 22 G C -0.000180
0 22 G U -0.023918
0 22 G G 0.019762
0 22 G - 0.004662
0 22 - A 0.000009
0 22 - C 0.000381
0 22 - U 0.000761
0 22 - G -0.000012
0 22 - - 0.000003
0 23 A A -0.007186
0 23 A C 0.014255
0 23 A U 0.001949
0 23 A G 0.000184
0 23 A - -0.000008
0 23 C A -0.000462
0 23 C C -0.000182
0 23 C U 0.003246
0 23 C G -0.056255
0 23 C - 0.013999
0 23 U A 0.006368
0 23 U C -0.044752
0 23 U U -0.022134
0 23 U G 0.076882
0 23 U - 0.000008
0 23 G A -0.001666
0 23 G C -0.025172
0 23 G U 0.006777
0 23 G G 0.001546
0 23 G - 0.004441
0 23 - A 0.000004
0 23 - C 0.000003
0 23 - U 0.000010
0 23 - G 0.001389
0 23 - - 0.000007
0 24 A A -0.000216
0 24 A C -0.020813
0 24 A U -0.059231
0 24 A G 0.003675
0 24 A - -0.000011
0 24 C A 0.004678
0 24 C C -0.002388
0 24 C U 0.115511
0 24 C G -0.063396
0 24 C - -0.000008
0 24 U A -0.000260
0 24 U C 0.092652
0 24 U U -0.009264
0 24 U G -0.005430
0 24 U - 0.000619
0 24 G A -0.000703
0 24 G C -0.043528
0 24 G U 0.001473
0 24 G G 0.006498
0 24 G - 0.000008
0 24 - A -0.000002
0 24 - C 0.000255
0 24 - U 0.000007
0 24 - G 0.000647
0 24 - - 0.000005
0 25 A A -0.055098
0 25 A C -0.000061
0 25 A U 0.001537
0 25 A G 0.238134
0 25 A - 0.000157
0 25 C A 0.025582
0 25 C C 0.000724
0 25 C U -0.000001
0 25 C G -0.056932
0 25 C - 0.000765
0 25 U A 0.007187
0 25 U C -0.000009
0 25 U U 0.000002
0 25 U G -0.006050
0 25 U - 0.000512
0 25 G A -0.021164
0 25 G C 0.000001
0 25 G U 0.005470
0 25 G G -0.177918
0 25 G - -0.000005
0 25 - A -0.000010
0 25 - C -0.000004
0 25 - U -0.000004
0 25 - G 0.022552
0 25 - - 0.000001
0 26 A A -0.002490
0 26 A C 0.209713
0 26 A U -0.163124
0 26 A G -0.002092
0 26 A - -0.000000
0 26 C A -0.001188
0 26 C C -0.003015
0 26 C U 0.082509
0 26 C G -0.122147
0 26 C - 0.000008
0 26 U A 0.000653
0 26 U C -0.014745
0 26 U U -0.000007
0 26 U G 0.000980
0 26 U - -0.000004
0 26 G A -0.000846
0 26 G C 0.001377
0 26 G U 0.000540
0 26 G G -0.013856
0 26 G - 0.002551
0 26 - A -0.000001
0 26 - C -0.000003
0 26 - U 0.000735
0 26 - G 0.037835
0 26 - - 0.000006
0 27 A A -0.000011
0 27 A C -0.011617
0 27 A U 0.009056
0 27 A G -0.000012
0 27 A - -0.000001
0 27 C A -0.000004
0 27 C C 0.002951
0 27 C U 0.000351
0 27 C G -0.000010
0 27 C - -0.000005
0 27 U A 0.000003
0 27 U C 0.000057
0 27 U U -0.001716
0 27 U G -0.000003
0 27 U - -0.000001
0 27 G A 0.000490
0 27 G C -0.054084
0 27 G U -0.001887
0 27 G G 0.000246
0 27 G - 0.000002
0 27 - A -0.000001
0 27 - C 0.020983
0 27 - U 0.000005
0 27 - G 0.000003
0 27 - - -0.000001
0 28 A A -0.000008
0 28 A C 0.000005
0 28 A U 0.000010
0 28 A G 0.000171
0 28 A - 0.000689
0 28 C A 0.072764
0 28 C C -0.000006
0 28 C U 0.000817
0 28 C G -0.016132
0 28 C - -0.000007
0 28 U A -0.000357
0 28 U C 0.000010
0 28 U U 0.000002
0 28 U G 0.000889
0 28 U - -0.000005
0 28 G A -0.116385
0 28 G C 0.000106
0 28 G U 0.001756
0 28 G G 0.001257
0 28 G - 0.000050
0 28 - A 0.000774
0 28 - C 0.000004
0 28 - U 0.000010
0 28 - G 0.024940
0 28 - - 0.000010
0 29 A A -0.000002
0 29 A C -0.007496
0 29 A U -0.000002
0 29 A G -0.000009
0 29 A - -0.000009
0 29 C A -0.000007
0 29 C C -0.000922
0 29 C U -0.000004
0 29 C G 0.000727
0 29 C - -0.000002
0 29 U A 0.000750
0 29 U C -0.002926
0 29 U U -0.000009
0 29 U G -0.000009
0 29 U - 0.000006
0 29 G A -0.000005
0 29 G C -0.003060
0 29 G U -0.000007
0 29 G G -0.000005
0 29 G - -0.000001
0 29 - A -0.000009
0 29 - C 0.027637
0 29 - U -0.000010
0 29 - G -0.000009
0 29 - - -0.000009
0 30 A A -0.000001
0 30 A C -0.011808
0 30 A U -0.000001
0 30 A G -0.000006
0 30 A - -0.000001
0 30 C A -0.000002
0 30 C C -0.001251
0 30 C U 0.000005
0 30 C G 0.000702
0 30 C - 0.001803
0 30 U A -0.000009
0 30 U C -0.001844
0 30 U U 0.000005
0 30 U G 0.000005
0 30 U - 0.000008
0 30 G A 0.000003
0 30 G C -0.005252
0 30 G U -0.000008
0 30 G G -0.000002
0 30 G - 0.000002
0 30 - A -0.000001
0 30 - C 0.026810
0 30 - U -0.000001
0 30 - G -0.000001
0 30 - - -0.000003
0 31 A A -0.000003
0 31 A C 0.000004
0 31 A U -0.000008
0 31 A G -0.015970
0 31 A - -0.000001
0 31 C A 0.000003
0 31 C C -0.000001
0 31 C U -0.000002
0 31 C G 0.000692
0 31 C - 0.000003
0 31 U A 0.000003
0 31 U C -0.000009
0 31 U U -0.000009
0 31 U G -0.002063
0 31 U - -0.000004
0 31 G A -0.000005
0 31 G C 0.000001
0 31 G U -0.000007
0 31 G G -0.003926
0 31 G - -0.000005
0 31 - A -0.000008
0 31 - C -0.000009
0 31 - U -0.000009
0 31 - G 0.030027
0 31 - - -0.000009
0 32 A A -0.005833
0 32 A C 0.000003
0 32 A U 0.000978
0 32 A G -0.000002
0 32 A - 0.000998
0 32 C A -0.182203
0 32 C C 0.001391
0 32 C U 0.348692
0 32 C G 0.000001
0 32 C - 0.000011
0 32 U A -0.003195
0 32 U C 0.000006
0 32 U U 0.001848
0 32 U G -0.000005
0 32 U - 0.000012
0 32 G A 0.052621
0 32 G C 0.000252
0 32 G U -0.335998
0 32 G G 0.000822
0 32 G - 0.001281
0 32 - A 0.050837
0 32 - C 0.000012
0 32 - U 0.000001
0 32 - G 0.000012
0 32 - - 0.000008
0 33 A A 0.001316
0 33 A C 0.000967
0 33 A U 0.000005
0 33 A G 0.000004
0 33 A - -0.000000
0 33 C A -0.003177
0 33 C C -0.000071
0 33 C U 0.000007
0 33 C G -0.000002
0 33 C - 0.000892
0 33 U A -0.002203
0 33 U C -0.000001
0 33 U U -0.000005
0 33 U G -0.000005
0 33 U - 0.000921
0 33 G A -0.013757
0 33 G C -0.000002
0 33 G U 0.000593
0 33 G G -0.000004
0 33 G - 0.000829
0 33 - A 0.016756
0 33 - C 0.000004
0 33 - U 0.000001
0 33 - G -0.000005
0 33 - - 0.000001
0 34 A A 0.000010
0 34 A C -0.000006
0 34 A U 0.000009
0 34 A G -0.030307
0 34 A - 0.000008
0 34 C A -0.000006
0 34 C C -0.000002
0 34 C U -0.000009
0 34 C G 0.000151
0 34 C - -0.000003
0 34 U A -0.000006
0 34 U C 0.000002
0 34 U U -0.000006
0 34 U G -0.001715
0 34 U - -0.000006
0 34 G A 0.000010
0 34 G C 0.000004
0 34 G U -0.000003
0 34 G G -0.004190
0 34 G - -0.000006
0 34 - A -0.000006
0 34 - C -0.000006
0 34 - U -0.000006
0 34 - G 0.031820
0 34 - - -0.000006
0 35 A A -0.000003
0 35 A C 0.000007
0 35 A U 0.000007
0 35 A G -0.015924
0 35 A - 0.000001
0 35 C A 0.000003
0 35 C C -0.000001
0 35 C U -0.000007
0 35 C G 0.000293
0 35 C - 0.000446
0 35 U A 0.000595
0 35 U C 0.000001
0 35 U U 0.000007
0 35 U G -0.002807
0 35 U - 0.000002
0 35 G A -0.000012
0 35 G C 0.000009
0 35 G U -0.000006
0 35 G G -0.007243
0 35 G - 0.000511
0 35 - A 0.000004
0 35 - C 0.000001
0 35 - U 0.000001
0 35 - G 0.027938
0 35 - - 0.000001
0 36 A A -0.002184
0 36 A C 0.074311
0 36 A U -0.000009
0 36 A G -0.001109
0 36 A - -0.000002
0 36 C A 0.040163
0 36 C C -0.234125
0 36 C U 0.023575
0 36 C G 0.025703
0 36 C - 0.004606
0 36 U A -0.000157
0 36 U C -0.000628
0 36 U U 0.000774
0 36 U G 0.009292
0 36 U - 0.000010
0 36 G A -0.207931
0 36 G C 0.093555
0 36 G U 0.003087
0 36 G G -0.003559
0 36 G - 0.000012
0 36 - A 0.094952
0 36 - C 0.000008
0 36 - U 0.000006
0 36 - G 0.000493
0 36 - - 0.000013
0 37 A A -0.000013
0 37 A C 0.000006
0 37 A U 0.000000
0 37 A G -0.001602
0 37 A - -0.000010
0 37 C A 0.000002
0 37 C C 0.000010
0 37 C U 0.000009
0 37 C G -0.002535
0 37 C - -0.000011
0 37 U A -0.000007
0 37 U C 0.000007
0 37 U U -0.000009
0 37 U G -0.001401
0 37 U - -0.000010
0 37 G A -0.000005
0 37 G C 0.000003
0 37 G U -0.025949
0 37 G G -0.000021
0 37 G - 0.000489
0 37 - A -0.000005
0 37 - C 0.000006
0 37 - U -0.000004
0 37 - G 0.036803
0 37 - - -0.000004
0 38 A A -0.000018
0 38 A C 0.002488
0 38 A U 0.001493
0 38 A G 0.000002
0 38 A - 0.000005
0 38 C A 0.005792
0 38 C C -0.035135
0 38 C U 0.024694
0 38 C G 0.000008
0 38 C - 0.000083
0 38 U A 0.000000
0 38 U C 0.001111
0 38 U U -0.000013
0 38 U G 0.000207
0 38 U - -0.000004
0 38 G A 0.001039
0 38 G C 0.025579
0 38 G U -0.216896
0 38 G G 0.002158
0 38 G - 0.004177
0 38 - A 0.000013
0 38 - C 0.061973
0 38 - U -0.000005
0 38 - G 0.000004
0 38 - - 0.000010
0 39 A A -0.004645
0 39 A C -0.000007
0 39 A U 0.000001
0 39 A G -0.000009
0 39 A - -0.000007
0 39 C A -0.001411
0 39 C C 0.000007
0 39 C U -0.000005
0 39 C G 0.000008
0 39 C - -0.000003
0 39 U A -0.003656
0 39 U C -0.000001
0 39 U U 0.000008
0 39 U G 0.000394
0 39 U - -0.000010
0 39 G A 0.001428
0 39 G C -0.000007
0 39 G U -0.000006
0 39 G G 0.000752
0 39 G - -0.017578
0 39 - A 0.034242
0 39 - C 0.000006
0 39 - U 0.000007
0 39 - G 0.000006
0 39 - - -0.000007
0 40 A A -0.001206
0 40 A C 0.000003
0 40 A U 0.000003
0 40 A G -0.000002
0 40 A - 0.000418
0 40 C A -0.007396
0 40 C C 0.001380
0 40 C U 0.011230
0 40 C G 0.001511
0 40 C - -0.000005
0 40 U A -0.053786
0 40 U C -0.000008
0 40 U U 0.000004
0 40 U G 0.000169
0 40 U - 0.001332
0 40 G A 0.039416
0 40 G C -0.000143
0 40 G U 0.000309
0 40 G G -0.000012
0 40 G - -0.048131
0 40 - A 0.043235
0 40 - C 0.000007
0 40 - U 0.000008
0 40 - G 0.000002
0 40 - - -0.000010
0 41 A A 0.002192
0 41 A C 0.003399
0 41 A U -0.000011
0 41 A G -0.067662
0 41 A - 0.000273
0 41 C A 0.040988
0 41 C C -0.147344
0 41 C U 0.093661
0 41 C G -0.002490
0 41 C - 0.006271
0 41 U A 0.000134
0 41 U C 0.004944
0 41 U U -0.108867
0 41 U G 0.064494
0 41 U - 0.000959
0 41 G A 0.001825
0 41 G C 0.047559
0 41 G U -0.001348
0 41 G G 0.000158
0 41 G - -0.000460
0 41 - A 0.000009
0 41 - C 0.000791
0 41 - U 0.000007
0 41 - G 0.000520
0 41 - - 0.000005
0 42 A A 0.000628
0 42 A C 0.056377
0 42 A U -0.000101
0 42 A G -0.018786
0 42 A - 0.000812
0 42 C A 0.000699
0 42 C C -0.000857
0 42 C U -0.038881
0 42 C G 0.020530
0 42 C - 0.048817
0 42 U A 0.000832
0 42 U C -0.033003
0 42 U U 0.001232
0 42 U G 0.000902
0 42 U - 0.030025
0 42 G A 0.000829
0 42 G C -0.009336
0 42 G U 0.123983
0 42 G G 0.000918
0 42 G - -0.219085
0 42 - A 0.000003
0 42 - C 0.010247
0 42 - U -0.000005
0 42 - G 0.000499
0 42 - - -0.000001
0 43 A A -0.003903
0 43 A C 0.011368
0 43 A U -0.000009
0 43 A G -0.000309
0 43 A - 0.000728
0 43 C A 0.000310
0 43 C C -0.003557
0 43 C U 0.001563
0 43 C G 0.000699
0 43 C - 0.085662
0 43 U A 0.002446
0 43 U C -0.000404
0 43 U U 0.000636
0 43 U G 0.018754
0 43 U - -0.181951
0 43 G A 0.002253
0 43 G C -0.006193
0 43 G U 0.000080
0 43 G G -0.001092
0 43 G - 0.027579
0 43 - A -0.000003
0 43 - C 0.010764
0 43 - U 0.000561
0 43 - G 0.000010
0 43 - - 0.000001
0 44 A A -0.000009
0 44 A C 0.265685
0 44 A U 0.000454
0 44 A G -0.011456
0 44 A - 0.008869
0 44 C A 0.144070
0 44 C C -0.448483
0 44 C U 0.002017
0 44 C G 0.043388
0 44 C - -0.092776
0 44 U A 0.000006
0 44 U C 0.006427
0 44 U U 0.000120
0 44 U G 0.000001
0 44 U - -0.005221
0 44 G A 0.000344
0 44 G C -0.001281
0 44 G U 0.002540
0 44 G G 0.001940
0 44 G - 0.012386
0 44 - A -0.000006
0 44 - C 0.000647
0 44 - U 0.000842
0 44 - G -0.000007
0 44 - - -0.000003
0 45 A A -0.011861
0 45 A C 0.037152
0 45 A U 0.000681
0 45 A G -0.000010
0 45 A - 0.002947
0 45 C A 0.039182
0 45 C C -0.039258
0 45 C U -0.002741
0 45 C G 0.023269
0 45 C - -0.052315
0 45 U A 0.000582
0 45 U C 0.001044
0 45 U U 0.002385
0 45 U G -0.000009
0 45 U - -0.168081
0 45 G A -0.000080
0 45 G C -0.021945
0 45 G U -0.000758
0 45 G G -0.000707
0 45 G - 0.172123
0 45 - A 0.000007
0 45 - C 0.000778
0 45 - U 0.000509
0 45 - G -0.000004
0 45 - - -0.000011
0 46 A A 0.000002
0 46 A C -0.000005
0 46 A U 0.000003
0 46 A G 0.000008
0 46 A - 0.001318
0 46 C A -0.000002
0 46 C C -0.000011
0 46 C U 0.000006
0 46 C G 0.000008
0 46 C - -0.018983
0 46 U A 0.000007
0 46 U C 0.000914
0 46 U U -0.000007
0 46 U G -0.000001
0 46 U - -0.003818
0 46 G A -0.000004
0 46 G C -0.000007
0 46 G U 0.000002
0 46 G G -0.000012
0 46 G - 0.003966
0 46 - A 0.000006
0 46 - C 0.000006
0 46 - U 0.000009
0 46 - G 0.000006
0 46 - - 0.021081
0 47 A A -0.000005
0 47 A C -0.000005
0 47 A U -0.000010
0 47 A G -0.000009
0 47 A - -0.002289
0 47 C A 0.000389
0 47 C C -0.000007
0 47 C U -0.000001
0 47 C G 0.000004
0 47 C - -0.003917
0 47 U A 0.000006
0 47 U C 0.000004
0 47 U U 0.000006
0 47 U G -0.000009
0 47 U - -0.001764
0 47 G A -0.000005
0 47 G C -0.000010
0 47 G U -0.000001
0 47 G G -0.000008
0 47 G - -0.003365
0 47 - A 0.000006
0 47 - C 0.000006
0 47 - U 0.000006
0 47 - G 0.000002
0 47 - - 0.024558
0 48 A A -0.000012
0 48 A C -0.000002
0 48 A U -0.000004
0 48 A G -0.000001
0 48 A - -0.003376
0 48 C A 0.000004
0 48 C C 0.000240
0 48 C U 0.000302
0 48 C G 0.000006
0 48 C - -0.001965
0 48 U A 0.000006
0 48 U C 0.000005
0 48 U U -0.000004
0 48 U G -0.000006
0 48 U - -0.002097
0 48 G A -0.000010
0 48 G C -0.000003
0 48 G U 0.000838
0 48 G G -0.000011
0 48 G - -0.002672
0 48 - A 0.000002
0 48 - C -0.000005
0 48 - U 0.000002
0 48 - G 0.000002
0 48 - - 0.026825
0 49 A A 0.000949
0 49 A C -0.000009
0 49 A U -0.000005
0 49 A G 0.000008
0 49 A - 0.001324
0 49 C A 0.000416
0 49 C C 0.000010
0 49 C U 0.000001
0 49 C G -0.000009
0 49 C - -0.050953
0 49 U A -0.000009
0 49 U C 0.000002
0 49 U U -0.000011
0 49 U G -0.000005
0 49 U - -0.002624
0 49 G A -0.000010
0 49 G C -0.000010
0 49 G U -0.000017
0 49 G G -0.000013
0 49 G - 0.004933
0 49 - A -0.000005
0 49 - C -0.000005
0 49 - U -0.000005
0 49 - G -0.000000
0 49 - - 0.030879
0 50 A A -0.000001
0 50 A C -0.000006
0 50 A U -0.000012
0 50 A G 0.000235
0 50 A - -0.008126
0 50 C A 0.000006
0 50 C C -0.000006
0 50 C U 0.000008
0 50 C G 0.002283
0 50 C - -0.003148
0 50 U A 0.000008
0 50 U C -0.000008
0 50 U U -0.000010
0 50 U G 0.000002
0 50 U - -0.003445
0 50 G A -0.000010
0 50 G C -0.000006
0 50 G U 0.000003
0 50 G G -0.000011
0 50 G - 0.003062
0 50 - A 0.000005
0 50 - C 0.000005
0 50 - U 0.000005
0 50 - G 0.000005
0 50 - - 0.024575
0 51 A A -0.000001
0 51 A C -0.000001
0 51 A U 0.000002
0 51 A G 0.000001
0 51 A - -0.008615
0 51 C A 0.000000
0 51 C C -0.000001
0 51 C U 0.000041
0 51 C G -0.000009
0 51 C - -0.000635
0 51 U A 0.000006
0 51 U C -0.000001
0 51 U U -0.000001
0 51 U G -0.000008
0 51 U - -0.002042
0 51 G A -0.000003
0 51 G C -0.000007
0 51 G U 0.000007
0 51 G G 0.000005
0 51 G - 0.001718
0 51 - A -0.000001
0 51 - C -0.000001
0 51 - U -0.000005
0 51 - G -0.000001
0 51 - - 0.023663
0 52 A A 0.000009
0 52 A C 0.000009
0 52 A U -0.000005
0 52 A G 0.000009
0 52 A - -0.008863
0 52 C A -0.000002
0 52 C C 0.000009
0 52 C U 0.000004
0 52 C G -0.000009
0 52 C - -0.000448
0 52 U A 0.000009
0 52 U C -0.000004
0 52 U U 0.000009
0 52 U G -0.000005
0 52 U - -0.001857
0 52 G A -0.000009
0 52 G C 0.000002
0 52 G U -0.000002
0 52 G G -0.000001
0 52 G - -0.003650
0 52 - A 0.000009
0 52 - C 0.000008
0 52 - U -0.000006
0 52 - G 0.000009
0 52 - - 0.018982
0 53 A A -0.000007
0 53 A C 0.000347
0 53 A U -0.000007
0 53 A G -0.000001
0 53 A - -0.009216
0 53 C A 0.000008
0 53 C C -0.000010
0 53 C U 0.000003
0 53 C G 0.000255
0 53 C - -0.000200
0 53 U A -0.000002
0 53 U C -0.000000
0 53 U U -0.000001
0 53 U G -0.000007
0 53 U - -0.002631
0 53 G A -0.000003
0 53 G C 0.000008
0 53 G U -0.000001
0 53 G G -0.000009
0 53 G - -0.003269
0 53 - A -0.000007
0 53 - C -0.000007
0 53 - U -0.000007
0 53 - G -0.000007
0 53 - - 0.026205
0 54 A A 0.000017
0 54 A C 0.000003
0 54 A U -0.000004
0 54 A G 0.000005
0 54 A - -0.013182
0 54 C A -0.000004
0 54 C C -0.000006
0 54 C U -0.000001
0 54 C G -0.000008
0 54 C - 0.002018
0 54 U A -0.000004
0 54 U C -0.000004
0 54 U U -0.000001
0 54 U G -0.000004
0 54 U - -0.001943
0 54 G A 0.000003
0 54 G C 0.000006
0 54 G U 0.000285
0 54 G G 0.000005
0 54 G - -0.004167
0 54 - A -0.000004
0 54 - C -0.000004
0 54 - U -0.000004
0 54 - G -0.000003
0 54 - - 0.027166
0 55 A A 0.000003
0 55 A C 0.000005
0 55 A U -0.000009
0 55 A G -0.000004
0 55 A - -0.009618
0 55 C A -0.000002
0 55 C C 0.000003
0 55 C U -0.000004
0 55 C G -0.000002
0 55 C - 0.000852
0 55 U A -0.000008
0 55 U C 0.000003
0 55 U U 0.000001
0 55 U G 0.000002
0 55 U - -0.001808
0 55 G A 0.000008
0 55 G C -0.000001
0 55 G U -0.000001
0 55 G G 0.000002
0 55 G - -0.009959
0 55 - A -0.000009
0 55 - C 0.000001
0 55 - U -0.000009
0 55 - G -0.000009
0 55 - - 0.022451
0 56 A A 0.000001
0 56 A C 0.000005
0 56 A U -0.000006
0 56 A G -0.000008
0 56 A - -0.026981
0 56 C A 0.000000
0 56 C C 0.000000
0 56 C U -0.000006
0 56 C G 0.000002
0 56 C - -0.001719
0 56 U A 0.000002
0 56 U C -0.000008
0 56 U U -0.000001
0 56 U G -0.000007
0 56 U - -0.002110
0 56 G A 0.000001
0 56 G C -0.000006
0 56 G U -0.000008
0 56 G G 0.000002
0 56 G - -0.000824
0 56 - A -0.000008
0 56 - C -0.000008
0 56 - U -0.000010
0 56 - G -0.000008
0 56 - - 0.027866
0 57 A A -0.000003
0 57 A C 0.000006
0 57 A U -0.000006
0 57 A G -0.000006
0 57 A - -0.007136
0 57 C A 0.000330
0 57 C C -0.000002
0 57 C U 0.000007
0 57 C G 0.000884
0 57 C - -0.002533
0 57 U A -0.000009
0 57 U C -0.000007
0 57 U U -0.000005
0 57 U G 0.000004
0 57 U - -0.003248
0 57 G A 0.000005
0 57 G C -0.000001
0 57 G U -0.000002
0 57 G G -0.000001
0 57 G - 0.000248
0 57 - A -0.000008
0 57 - C -0.000008
0 57 - U -0.000008
0 57 - G 0.000008
0 57 - - 0.025166
0 58 A A 0.000280
0 58 A C -0.000002
0 58 A U -0.000007
0 58 A G 0.000005
0 58 A - -0.011999
0 58 C A 0.000007
0 58 C C 0.001451
0 58 C U 0.000008
0 58 C G 0.000330
0 58 C - -0.009553
0 58 U A -0.000000
0 58 U C 0.000004
0 58 U U -0.000005
0 58 U G -0.000005
0 58 U - -0.002716
0 58 G A 0.000002
0 58 G C -0.000010
0 58 G U 0.000006
0 58 G G -0.005383
0 58 G - 0.011743
0 58 - A -0.000005
0 58 - C 0.000000
0 58 - U -0.000005
0 58 - G 0.000005
0 58 - - 0.024204
0 59 A A -0.142677
0 59 A C -0.000872
0 59 A U 0.001700
0 59 A G 0.002270
0 59 A - -0.001186
0 59 C A 0.464688
0 59 C C 0.000071
0 59 C U -0.077610
0 59 C G -0.001244
0 59 C - 0.023924
0 59 U A 0.002166
0 59 U C -0.003336
0 59 U U -0.000004
0 59 U G -0.001343
0 59 U - 0.001129
0 59 G A -0.102767
0 59 G C 0.064843
0 59 G U 0.015307
0 59 G G -0.010012
0 59 G - -0.224471
0 59 - A 0.000004
0 59 - C -0.000008
0 59 - U 0.000432
0 59 - G 0.001503
0 59 - - -0.000001
0 60 A A 0.000002
0 60 A C -0.007592
0 60 A U 0.002484
0 60 A G 0.006681
0 60 A - 0.000005
0 60 C A 0.033228
0 60 C C 0.012490
0 60 C U -0.003852
0 60 C G 0.006020
0 60 C - -0.052555
0 60 U A -0.045866
0 60 U C 0.000555
0 60 U U 0.001367
0 60 U G -0.000924
0 60 U - 0.002436
0 60 G A 0.000539
0 60 G C 0.000470
0 60 G U -0.000936
0 60 G G -0.019180
0 60 G - 0.007018
0 60 - A 0.000000
0 60 - C 0.000487
0 60 - U -0.000004
0 60 - G 0.016186
0 60 - - 0.000001
0 61 A A -0.000003
0 61 A C 0.000547
0 61 A U -0.000013
0 61 A G -0.076106
0 61 A - 0.067492
0 61 C A 0.002623
0 61 C C 0.018983
0 61 C U 0.000172
0 61 C G 0.001868
0 61 C - -0.064675
0 61 U A 0.000003
0 61 U C -0.001256
0 61 U U -0.000011
0 61 U G 0.013977
0 61 U - -0.001654
0 61 G A -0.000003
0 61 G C -0.000553
0 61 G U 0.000451
0 61 G G -0.003541
0 61 G - 0.005737
0 61 - A -0.000009
0 61 - C 0.000772
0 61 - U -0.000004
0 61 - G 0.008030
0 61 - - -0.000001
0 62 A A -0.093033
0 62 A C 0.000001
0 62 A U 0.000002
0 62 A G -0.000001
0 62 A - -0.000162
0 62 C A -0.005418
0 62 C C 0.000008
0 62 C U 0.000635
0 62 C G 0.000451
0 62 C - 0.001370
0 62 U A -0.000891
0 62 U C 0.000010
0 62 U U 0.000009
0 62 U G -0.000003
0 62 U - -0.000011
0 62 G A -0.003124
0 62 G C 0.001161
0 62 G U 0.000288
0 62 G G 0.000852
0 62 G - -0.000267
0 62 - A 0.091456
0 62 - C -0.000007
0 62 - U -0.000003
0 62 - G -0.000006
0 62 - - 0.000003
0 63 A A -0.014679
0 63 A C 0.000003
0 63 A U 0.000007
0 63 A G 0.000723
0 63 A - -0.000036
0 63 C A 0.000149
0 63 C C -0.000007
0 63 C U 0.000008
0 63 C G 0.000580
0 63 C - 0.000003
0 63 U A -0.001831
0 63 U C -0.000008
0 63 U U -0.000005
0 63 U G -0.000003
0 63 U - -0.000001
0 63 G A -0.001770
0 63 G C 0.000004
0 63 G U 0.000273
0 63 G G 0.000004
0 63 G - -0.000507
0 63 - A 0.038385
0 63 - C 0.000005
0 63 - U -0.000003
0 63 - G 0.000005
0 63 - - -0.000011
0 64 A A -0.020849
0 64 A C 0.016660
0 64 A U -0.000616
0 64 A G 0.000647
0 64 A - -0.000001
0 64 C A -0.001455
0 64 C C -0.194888
0 64 C U 0.038024
0 64 C G -0.000009
0 64 C - 0.009740
0 64 U A 0.005925
0 64 U C -0.000724
0 64 U U -0.001482
0 64 U G -0.000009
0 64 U - -0.000005
0 64 G A 0.015938
0 64 G C 0.154098
0 64 G U -0.053463
0 64 G G 0.003006
0 64 G - -0.018281
0 64 - A 0.000385
0 64 - C -0.000004
0 64 - U 0.011036
0 64 - G 0.000011
0 64 - - -0.000009
0 65 A A -0.000006
0 65 A C -0.005778
0 65 A U 0.000008
0 65 A G 0.000006
0 65 A - -0.000008
0 65 C A -0.000008
0 65 C C -0.000790
0 65 C U -0.000008
0 65 C G 0.000626
0 65 C - 0.000003
0 65 U A -0.000002
0 65 U C -0.001838
0 65 U U 0.000007
0 65 U G -0.000003
0 65 U - -0.000006
0 65 G A -0.036346
0 65 G C -0.000216
0 65 G U 0.000007
0 65 G G -0.000002
0 65 G - 0.000487
0 65 - A 0.000006
0 65 - C 0.033565
0 65 - U 0.000005
0 65 - G 0.000005