# NB_STEPS 3000
# UP_FREQ 1000
# TEMP 1.000000
# LAMBDA 0.050000
# ID_THRES 1.000000
# ALPHA 1.000000
0 0 A A -0.002062
0 0 C C 0.000994
0 0 U U 0.000577
0 0 G G -0.000336
0 0 - - -0.000066
0 1 A A -0.000052
0 1 A C 0.000065
0 1 A U -0.001723
0 1 A G -0.103436
0 1 A - 0.000041
0 1 C A 0.000020
0 1 C C 0.000019
0 1 C U 0.000530
0 1 C G 0.000023
0 1 C - 0.000037
0 1 U A 0.000020
0 1 U C 0.000025
0 1 U U 0.000791
0 1 U G 0.000026
0 1 U - -0.000025
0 1 G A -0.000027
0 1 G C -0.000045
0 1 G U 0.000007
0 1 G G -0.000058
0 1 G - 0.000005
0 1 - A -0.000029
0 1 - C 0.000025
0 1 - U 0.000046
0 1 - G 0.000041
0 1 - - -0.000056
0 2 A A -0.000060
0 2 A C 0.000019
0 2 A U 0.001299
0 2 A G -0.029066
0 2 A - 0.001008
0 2 C A -0.000033
0 2 C C 0.000004
0 2 C U -0.000006
0 2 C G 0.000523
0 2 C - -0.000012
0 2 U A 0.000812
0 2 U C 0.000018
0 2 U U -0.000013
0 2 U G -0.000054
0 2 U - -0.000001
0 2 G A 0.000032
0 2 G C -0.000037
0 2 G U -0.000012
0 2 G G -0.000086
0 2 G - -0.000001
0 2 - A -0.000027
0 2 - C -0.000004
0 2 - U 0.000024
0 2 - G 0.000050
0 2 - - -0.000020
0 3 A A 0.001921
0 3 A C -0.004528
0 3 A U -0.002670
0 3 A G 0.001441
0 3 A - 0.001070
0 3 C A 0.000551
0 3 C C -0.000027
0 3 C U 0.000021
0 3 C G 0.000029
0 3 C - -0.000046
0 3 U A 0.000001
0 3 U C -0.000019
0 3 U U 0.000442
0 3 U G 0.000040
0 3 U - -0.000000
0 3 G A -0.000018
0 3 G C -0.000083
0 3 G U -0.000006
0 3 G G 0.000048
0 3 G - -0.000002
0 3 - A -0.000023
0 3 - C -0.000017
0 3 - U 0.000022
0 3 - G -0.000043
0 3 - - 0.000019
0 4 A A -0.000016
0 4 A C -0.002312
0 4 A U 0.000050
0 4 A G -0.003387
0 4 A - 0.000213
0 4 C A 0.000505
0 4 C C 0.000029
0 4 C U 0.000028
0 4 C G -0.000016
0 4 C - 0.000043
0 4 U A 0.000847
0 4 U C -0.000018
0 4 U U 0.000016
0 4 U G 0.000003
0 4 U - 0.000043
0 4 G A -0.000016
0 4 G C 0.000036
0 4 G U -0.000008
0 4 G G -0.001167
0 4 G - -0.000012
0 4 - A -0.000022
0 4 - C 0.000018
0 4 - U 0.000030
0 4 - G -0.000027
0 4 - - -0.000038
0 5 A A -0.001389
0 5 A C 0.001018
0 5 A U 0.000789
0 5 A G -0.089191
0 5 A - 0.001475
0 5 C A 0.000507
0 5 C C -0.000028
0 5 C U 0.000029
0 5 C G -0.000038
0 5 C - 0.000030
0 5 U A 0.000028
0 5 U C 0.000014
0 5 U U -0.000059
0 5 U G 0.000807
0 5 U - -0.000021
0 5 G A -0.000072
0 5 G C 0.000043
0 5 G U -0.000021
0 5 G G -0.000025
0 5 G - -0.000008
0 5 - A 0.000012
0 5 - C 0.000049
0 5 - U -0.000018
0 5 - G -0.000009
0 5 - - 0.000013
0 6 A A -0.000134
0 6 A C -0.009909
0 6 A U 0.000916
0 6 A G 0.000848
0 6 A - 0.000165
0 6 C A 0.000038
0 6 C C 0.000529
0 6 C U -0.000047
0 6 C G 0.000043
0 6 C - 0.000014
0 6 U A 0.000027
0 6 U C 0.000524
0 6 U U 0.000036
0 6 U G 0.000039
0 6 U - 0.000021
0 6 G A -0.000015
0 6 G C -0.000072
0 6 G U 0.000029
0 6 G G -0.000052
0 6 G - 0.000006
0 6 - A -0.000067
0 6 - C 0.000635
0 6 - U -0.000045
0 6 - G 0.000049
0 6 - - 0.000042
0 7 A A 0.001074
0 7 A C -0.096785
0 7 A U 0.000058
0 7 A G 0.000465
0 7 A - 0.002849
0 7 C A 0.000051
0 7 C C -0.000030
0 7 C U 0.000027
0 7 C G -0.000037
0 7 C - 0.000568
0 7 U A 0.000053
0 7 U C 0.000805
0 7 U U -0.000048
0 7 U G -0.000050
0 7 U - -0.000045
0 7 G A -0.000031
0 7 G C 0.000013
0 7 G U 0.000005
0 7 G G 0.000031
0 7 G - 0.000009
0 7 - A -0.000015
0 7 - C -0.000037
0 7 - U 0.000050
0 7 - G 0.000004
0 7 - - -0.000016
0 8 A A -0.077568
0 8 A C 0.002355
0 8 A U -0.000038
0 8 A G -0.001164
0 8 A - 0.000131
0 8 C A 0.000007
0 8 C C 0.000033
0 8 C U 0.000530
0 8 C G 0.000022
0 8 C - 0.000052
0 8 U A 0.000516
0 8 U C 0.000000
0 8 U U 0.000020
0 8 U G -0.000015
0 8 U - 0.000024
0 8 G A 0.000004
0 8 G C -0.000046
0 8 G U 0.000037
0 8 G G -0.000035
0 8 G - 0.000001
0 8 - A 0.000914
0 8 - C -0.000020
0 8 - U 0.000021
0 8 - G 0.000012
0 8 - - 0.000019
0 9 A A 0.000371
0 9 A C 0.000022
0 9 A U -0.000016
0 9 A G -0.253538
0 9 A - 0.000203
0 9 C A 0.000031
0 9 C C -0.000026
0 9 C U 0.000007
0 9 C G 0.004888
0 9 C - 0.000009
0 9 U A 0.000035
0 9 U C -0.000026
0 9 U U -0.000035
0 9 U G 0.000696
0 9 U - 0.000010
0 9 G A 0.000029
0 9 G C 0.000057
0 9 G U 0.000011
0 9 G G -0.000076
0 9 G - -0.000005
0 9 - A 0.000032
0 9 - C -0.000009
0 9 - U -0.000004
0 9 - G 0.002356
0 9 - - -0.000005
0 10 A A 0.000347
0 10 A C -0.000035
0 10 A U -0.109709
0 10 A G 0.000509
0 10 A - 0.000156
0 10 C A 0.000509
0 10 C C 0.000030
0 10 C U 0.000048
0 10 C G -0.000023
0 10 C - -0.000008
0 10 U A 0.000046
0 10 U C 0.000018
0 10 U U 0.000663
0 10 U G -0.000004
0 10 U - 0.000001
0 10 G A -0.000024
0 10 G C -0.000001
0 10 G U -0.000147
0 10 G G -0.000019
0 10 G - -0.000014
0 10 - A -0.000038
0 10 - C 0.000002
0 10 - U 0.001167
0 10 - G 0.000041
0 10 - - -0.000017
0 11 A A 0.000414
0 11 A C 0.000783
0 11 A U 0.001420
0 11 A G 0.000034
0 11 A - -0.013893
0 11 C A -0.000028
0 11 C C -0.000048
0 11 C U 0.000500
0 11 C G 0.000042
0 11 C - -0.000007
0 11 U A 0.000012
0 11 U C -0.000027
0 11 U U -0.000027
0 11 U G 0.000041
0 11 U - 0.000540
0 11 G A -0.000008
0 11 G C 0.000013
0 11 G U 0.000023
0 11 G G 0.000040
0 11 G - 0.000007
0 11 - A -0.000052
0 11 - C 0.000017
0 11 - U 0.000050
0 11 - G 0.000030
0 11 - - 0.000039
0 12 A A -0.018426
0 12 A C 0.001139
0 12 A U -0.002240
0 12 A G 0.000400
0 12 A - -0.001636
0 12 C A 0.000015
0 12 C C 0.000032
0 12 C U -0.000019
0 12 C G 0.000545
0 12 C - 0.000043
0 12 U A 0.000012
0 12 U C 0.000030
0 12 U U 0.000024
0 12 U G 0.000885
0 12 U - -0.000078
0 12 G A -0.000048
0 12 G C 0.000011
0 12 G U -0.000042
0 12 G G -0.000053
0 12 G - -0.000035
0 12 - A 0.000042
0 12 - C 0.000018
0 12 - U 0.000024
0 12 - G -0.000034
0 12 - - 0.000041
0 13 A A 0.001043
0 13 A C -0.000078
0 13 A U 0.000891
0 13 A G -0.013130
0 13 A - 0.001586
0 13 C A -0.000039
0 13 C C 0.000040
0 13 C U 0.000049
0 13 C G 0.000520
0 13 C - 0.000023
0 13 U A -0.000019
0 13 U C -0.000029
0 13 U U 0.000040
0 13 U G 0.000497
0 13 U - -0.000011
0 13 G A 0.000010
0 13 G C 0.000026
0 13 G U 0.000003
0 13 G G -0.000019
0 13 G - -0.000037
0 13 - A -0.000047
0 13 - C 0.000028
0 13 - U -0.000014
0 13 - G 0.001457
0 13 - - 0.000021
0 14 A A -0.000056
0 14 A C -0.058590
0 14 A U 0.000342
0 14 A G 0.001043
0 14 A - 0.000514
0 14 C A -0.000019
0 14 C C -0.000004
0 14 C U 0.000534
0 14 C G 0.000048
0 14 C - -0.000048
0 14 U A 0.000017
0 14 U C 0.000730
0 14 U U 0.000028
0 14 U G -0.000006
0 14 U - 0.000027
0 14 G A 0.000013
0 14 G C -0.000055
0 14 G U -0.000012
0 14 G G -0.000038
0 14 G - -0.000032
0 14 - A -0.000020
0 14 - C -0.000033
0 14 - U 0.000026
0 14 - G 0.000018
0 14 - - -0.000042
0 15 A A 0.000018
0 15 A C -0.003353
0 15 A U -0.001033
0 15 A G -0.001874
0 15 A - 0.003121
0 15 C A -0.000033
0 15 C C 0.000509
0 15 C U 0.000033
0 15 C G -0.000005
0 15 C - -0.000028
0 15 U A 0.000044
0 15 U C 0.000032
0 15 U U 0.000001
0 15 U G -0.000115
0 15 U - 0.000047
0 15 G A 0.000021
0 15 G C -0.000011
0 15 G U -0.000008
0 15 G G -0.000013
0 15 G - 0.000024
0 15 - A 0.000041
0 15 - C -0.000053
0 15 - U 0.000011
0 15 - G -0.000011
0 15 - - -0.000022
0 16 A A -0.000739
0 16 A C 0.001409
0 16 A U -0.003560
0 16 A G -0.000261
0 16 A - 0.000762
0 16 C A -0.000011
0 16 C C 0.000031
0 16 C U -0.000047
0 16 C G 0.000041
0 16 C - 0.000538
0 16 U A -0.000626
0 16 U C -0.000033
0 16 U U 0.000024
0 16 U G -0.000013
0 16 U - -0.000034
0 16 G A -0.000009
0 16 G C 0.000016
0 16 G U -0.000069
0 16 G G -0.000071
0 16 G - -0.000045
0 16 - A 0.000037
0 16 - C -0.000068
0 16 - U -0.000011
0 16 - G 0.000021
0 16 - - 0.000010
0 17 A A -0.000301
0 17 A C -0.024264
0 17 A U 0.002330
0 17 A G 0.000341
0 17 A - -0.000027
0 17 C A -0.000023
0 17 C C 0.000541
0 17 C U 0.000017
0 17 C G -0.000013
0 17 C - -0.000010
0 17 U A 0.000038
0 17 U C -0.000020
0 17 U U -0.000035
0 17 U G 0.000758
0 17 U - 0.000041
0 17 G A -0.000011
0 17 G C -0.000050
0 17 G U -0.000029
0 17 G G 0.000013
0 17 G - 0.000027
0 17 - A 0.000028
0 17 - C 0.000020
0 17 - U -0.000042
0 17 - G -0.000042
0 17 - - 0.000026
0 18 A A -0.002558
0 18 A C 0.000291
0 18 A U -0.008592
0 18 A G -0.001269
0 18 A - 0.000909
0 18 C A 0.000031
0 18 C C -0.000002
0 18 C U 0.000013
0 18 C G 0.000504
0 18 C - -0.000033
0 18 U A 0.000768
0 18 U C -0.000052
0 18 U U -0.000048
0 18 U G -0.000049
0 18 U - -0.000042
0 18 G A 0.000042
0 18 G C 0.000045
0 18 G U -0.000035
0 18 G G -0.000926
0 18 G - 0.000046
0 18 - A -0.000002
0 18 - C -0.000016
0 18 - U -0.000039
0 18 - G -0.000013
0 18 - - 0.000044
0 19 A A 0.001841
0 19 A C -0.002557
0 19 A U 0.001873
0 19 A G -0.001648
0 19 A - -0.000050
0 19 C A -0.000010
0 19 C C 0.000534
0 19 C U -0.000024
0 19 C G -0.000025
0 19 C - -0.000045
0 19 U A 0.000901
0 19 U C -0.000023
0 19 U U 0.000038
0 19 U G 0.000019
0 19 U - 0.000016
0 19 G A -0.000046
0 19 G C -0.000029
0 19 G U -0.000059
0 19 G G -0.000029
0 19 G - -0.000000
0 19 - A -0.000000
0 19 - C -0.000036
0 19 - U 0.000030
0 19 - G 0.000016
0 19 - - -0.000000
0 20 A A 0.000244
0 20 A C -0.029716
0 20 A U -0.002006
0 20 A G 0.000135
0 20 A - -0.000025
0 20 C A -0.000011
0 20 C C 0.000562
0 20 C U -0.000042
0 20 C G 0.000021
0 20 C - 0.000033
0 20 U A 0.000004
0 20 U C 0.000553
0 20 U U -0.000032
0 20 U G 0.000016
0 20 U - 0.000031
0 20 G A 0.000031
0 20 G C -0.000071
0 20 G U -0.000018
0 20 G G 0.000032
0 20 G - 0.000007
0 20 - A 0.000031
0 20 - C -0.000006
0 20 - U -0.000032
0 20 - G 0.000002
0 20 - - 0.000025
0 21 A A -0.000054
0 21 A C -0.006131
0 21 A U -0.006688
0 21 A G 0.001878
0 21 A - 0.002540
0 21 C A -0.000009
0 21 C C -0.000032
0 21 C U 0.000487
0 21 C G -0.000031
0 21 C - 0.000040
0 21 U A -0.000049
0 21 U C -0.000013
0 21 U U 0.000765
0 21 U G 0.000009
0 21 U - -0.000035
0 21 G A 0.000003
0 21 G C -0.000066
0 21 G U -0.000040
0 21 G G 0.000050
0 21 G - -0.000036
0 21 - A -0.000035
0 21 - C 0.000027
0 21 - U 0.000009
0 21 - G 0.000024
0 21 - - -0.000048
0 22 A A -0.000981
0 22 A C 0.000412
0 22 A U 0.001353
0 22 A G -0.013449
0 22 A - 0.000779
0 22 C A -0.000029
0 22 C C 0.000028
0 22 C U 0.000040
0 22 C G 0.000521
0 22 C - -0.000049
0 22 U A -0.000077
0 22 U C 0.000039
0 22 U U 0.000828
0 22 U G -0.000011
0 22 U - 0.000006
0 22 G A -0.000031
0 22 G C -0.000010
0 22 G U 0.000035
0 22 G G -0.000066
0 22 G - 0.000035
0 22 - A 0.000046
0 22 - C -0.000035
0 22 - U 0.000020
0 22 - G 0.000029
0 22 - - -0.000012
0 23 A A 0.000424
0 23 A C -0.003311
0 23 A U -0.024244
0 23 A G 0.001097
0 23 A - 0.000006
0 23 C A 0.000020
0 23 C C 0.000570
0 23 C U -0.000002
0 23 C G 0.000001
0 23 C - -0.000003
0 23 U A 0.000011
0 23 U C 0.000037
0 23 U U 0.000688
0 23 U G -0.000019
0 23 U - 0.000050
0 23 G A 0.000014
0 23 G C 0.000006
0 23 G U -0.000075
0 23 G G -0.000002
0 23 G - -0.000030
0 23 - A -0.000042
0 23 - C 0.000010
0 23 - U -0.000011
0 23 - G -0.000032
0 23 - - -0.000049
0 24 A A -0.000010
0 24 A C -0.003155
0 24 A U -0.007919
0 24 A G -0.000015
0 24 A - 0.000018
0 24 C A -0.000047
0 24 C C -0.000015
0 24 C U -0.000049
0 24 C G -0.000000
0 24 C - 0.000512
0 24 U A 0.000028
0 24 U C -0.000047
0 24 U U 0.000699
0 24 U G 0.000049
0 24 U - 0.000023
0 24 G A 0.000011
0 24 G C -0.000012
0 24 G U -0.000016
0 24 G G 0.000013
0 24 G - -0.000040
0 24 - A 0.000026
0 24 - C 0.000032
0 24 - U -0.000037
0 24 - G 0.000031
0 24 - - -0.000005
0 25 A A 0.003007
0 25 A C -0.003961
0 25 A U -0.074942
0 25 A G -0.000026
0 25 A - -0.000023
0 25 C A 0.000501
0 25 C C -0.000007
0 25 C U 0.000042
0 25 C G 0.000027
0 25 C - -0.000008
0 25 U A -0.000031
0 25 U C 0.000695
0 25 U U 0.000047
0 25 U G -0.000006
0 25 U - 0.000045
0 25 G A -0.000423
0 25 G C 0.000047
0 25 G U 0.000032
0 25 G G 0.000010
0 25 G - -0.000009
0 25 - A 0.000029
0 25 - C 0.000043
0 25 - U -0.000039
0 25 - G 0.000049
0 25 - - 0.000033
0 26 A A -0.001236
0 26 A C -0.005790
0 26 A U 0.002518
0 26 A G 0.001290
0 26 A - 0.005995
0 26 C A -0.000019
0 26 C C 0.000047
0 26 C U 0.000550
0 26 C G -0.000029
0 26 C - 0.000042
0 26 U A -0.000012
0 26 U C 0.000745
0 26 U U -0.000046
0 26 U G 0.000046
0 26 U - 0.000024
0 26 G A -0.000013
0 26 G C 0.000038
0 26 G U -0.075279
0 26 G G 0.000037
0 26 G - 0.000023
0 26 - A -0.000042
0 26 - C 0.000047
0 26 - U -0.000015
0 26 - G -0.000029
0 26 - - 0.000026
0 27 A A 0.001820
0 27 A C 0.003774
0 27 A U -0.002866
0 27 A G -0.005076
0 27 A - 0.000161
0 27 C A 0.000043
0 27 C C 0.000001
0 27 C U -0.000010
0 27 C G 0.000486
0 27 C - 0.000022
0 27 U A -0.000037
0 27 U C 0.000694
0 27 U U 0.000048
0 27 U G -0.000000
0 27 U - -0.000012
0 27 G A -0.000010
0 27 G C -0.000020
0 27 G U -0.000048
0 27 G G 0.000001
0 27 G - 0.000002
0 27 - A -0.000042
0 27 - C -0.000018
0 27 - U 0.000039
0 27 - G 0.000008
0 27 - - -0.000048
0 28 A A -0.009280
0 28 A C 0.000120
0 28 A U -0.000039
0 28 A G 0.000010
0 28 A - 0.000780
0 28 C A 0.000974
0 28 C C -0.000034
0 28 C U 0.000041
0 28 C G 0.000028
0 28 C - 0.000014
0 28 U A 0.000565
0 28 U C 0.000029
0 28 U U 0.000001
0 28 U G 0.000039
0 28 U - 0.000049
0 28 G A -0.000277
0 28 G C 0.000032
0 28 G U 0.000014
0 28 G G 0.000014
0 28 G - 0.000027
0 28 - A -0.000024
0 28 - C -0.000021
0 28 - U -0.000047
0 28 - G -0.000010
0 28 - - 0.000014
0 29 A A -0.000208
0 29 A C -0.004973
0 29 A U 0.000596
0 29 A G 0.000658
0 29 A - -0.000036
0 29 C A 0.000038
0 29 C C 0.001034
0 29 C U 0.000003
0 29 C G 0.000039
0 29 C - 0.000003
0 29 U A -0.000047
0 29 U C 0.000545
0 29 U U -0.000012
0 29 U G -0.000047
0 29 U - -0.000012
0 29 G A -0.000001
0 29 G C -0.000356
0 29 G U 0.000039
0 29 G G 0.000018
0 29 G - 0.000039
0 29 - A 0.000026
0 29 - C -0.000010
0 29 - U 0.000013
0 29 - G 0.000003
0 29 - - -0.000010
0 30 A A -0.021601
0 30 A C -0.000005
0 30 A U -0.000065
0 30 A G 0.000455
0 30 A - 0.000771
0 30 C A 0.001080
0 30 C C -0.000043
0 30 C U 0.000021
0 30 C G 0.000007
0 30 C - 0.000019
0 30 U A 0.000534
0 30 U C 0.000007
0 30 U U 0.000046
0 30 U G 0.000023
0 30 U - 0.000007
0 30 G A -0.000308
0 30 G C 0.000043
0 30 G U 0.000050
0 30 G G 0.000007
0 30 G - 0.000016
0 30 - A -0.000026
0 30 - C 0.000019
0 30 - U 0.000008
0 30 - G -0.000018
0 30 - - 0.000007
0 31 A A -0.000011
0 31 A C -0.139787
0 31 A U 0.000049
0 31 A G -0.000015
0 31 A - 0.000055
0 31 C A 0.000020
0 31 C C 0.001715
0 31 C U 0.000033
0 31 C G 0.000055
0 31 C - 0.000004
0 31 U A -0.000045
0 31 U C 0.000725
0 31 U U -0.000041
0 31 U G -0.000042
0 31 U - -0.000000
0 31 G A 0.000021
0 31 G C -0.000167
0 31 G U -0.000013
0 31 G G -0.000025
0 31 G - -0.000036
0 31 - A 0.000007
0 31 - C 0.000032
0 31 - U 0.000052
0 31 - G 0.000002
0 31 - - 0.000004
0 32 A A -0.010499
0 32 A C -0.000037
0 32 A U 0.000048
0 32 A G -0.000372
0 32 A - 0.001076
0 32 C A 0.000555
0 32 C C -0.000038
0 32 C U -0.000023
0 32 C G 0.000004
0 32 C - -0.000005
0 32 U A 0.000705
0 32 U C -0.000041
0 32 U U -0.000038
0 32 U G -0.000043
0 32 U - -0.000001
0 32 G A -0.000051
0 32 G C 0.000031
0 32 G U -0.000000
0 32 G G -0.000080
0 32 G - 0.000025
0 32 - A -0.000058
0 32 - C -0.000009
0 32 - U 0.000008
0 32 - G 0.000020
0 32 - - -0.000009
0 33 A A -0.002406
0 33 A C 0.002068
0 33 A U 0.000685
0 33 A G -0.001260
0 33 A - 0.000772
0 33 C A -0.000000
0 33 C C -0.000045
0 33 C U 0.000050
0 33 C G 0.000502
0 33 C - -0.000041
0 33 U A 0.000738
0 33 U C 0.000050
0 33 U U 0.000002
0 33 U G 0.000021
0 33 U - 0.000050
0 33 G A -0.000087
0 33 G C 0.000004
0 33 G U -0.000033
0 33 G G 0.000016
0 33 G - 0.000050
0 33 - A 0.000013
0 33 - C -0.000045
0 33 - U 0.000011
0 33 - G -0.000027
0 33 - - 0.000006
0 34 A A -0.000642
0 34 A C -0.020565
0 34 A U 0.000508
0 34 A G 0.000735
0 34 A - -0.000032
0 34 C A -0.000024
0 34 C C 0.000564
0 34 C U 0.000010
0 34 C G -0.000004
0 34 C - -0.000041
0 34 U A -0.000016
0 34 U C 0.000076
0 34 U U -0.000015
0 34 U G 0.000814
0 34 U - -0.000016
0 34 G A -0.000028
0 34 G C 0.000026
0 34 G U -0.000079
0 34 G G 0.000003
0 34 G - 0.000041
0 34 - A -0.000031
0 34 - C 0.000035
0 34 - U 0.000041
0 34 - G 0.000026
0 34 - - -0.000042
0 35 A A -0.002110
0 35 A C -0.001095
0 35 A U -0.000046
0 35 A G -0.001048
0 35 A - 0.002844
0 35 C A -0.000017
0 35 C C 0.000001
0 35 C U -0.000021
0 35 C G -0.000025
0 35 C - 0.000560
0 35 U A 0.000797
0 35 U C -0.000009
0 35 U U -0.000004
0 35 U G -0.000076
0 35 U - 0.000030
0 35 G A -0.000005
0 35 G C -0.000012
0 35 G U 0.000015
0 35 G G -0.000014
0 35 G - 0.000011
0 35 - A 0.000045
0 35 - C -0.000049
0 35 - U 0.000033
0 35 - G -0.000007
0 35 - - -0.000025
0 36 A A -0.001444
0 36 A C 0.000704
0 36 A U 0.000289
0 36 A G -0.013413
0 36 A - 0.000035
0 36 C A -0.000018
0 36 C C 0.000034
0 36 C U 0.000033
0 36 C G 0.000555
0 36 C - 0.000032
0 36 U A 0.000019
0 36 U C -0.000040
0 36 U U -0.000041
0 36 U G -0.000103
0 36 U - 0.000907
0 36 G A 0.000006
0 36 G C 0.000016
0 36 G U -0.000021
0 36 G G -0.000023
0 36 G - -0.000021
0 36 - A 0.000030
0 36 - C -0.000023
0 36 - U 0.000025
0 36 - G 0.000022
0 36 - - -0.000021
0 37 A A -0.000161
0 37 A C 0.000123
0 37 A U -0.005900
0 37 A G -0.000728
0 37 A - 0.000036
0 37 C A 0.000503
0 37 C C 0.000044
0 37 C U 0.000047
0 37 C G -0.000002
0 37 C - 0.000006
0 37 U A -0.000049
0 37 U C -0.000044
0 37 U U 0.000772
0 37 U G -0.000044
0 37 U - -0.000019
0 37 G A -0.000041
0 37 G C -0.000031
0 37 G U -0.000024
0 37 G G -0.000033
0 37 G - 0.000024
0 37 - A -0.000011
0 37 - C -0.000007
0 37 - U -0.000047
0 37 - G -0.000034
0 37 - - 0.000021
0 38 A A -0.000026
0 38 A C 0.001875
0 38 A U -0.003252
0 38 A G -0.001532
0 38 A - 0.000490
0 38 C A 0.000007
0 38 C C -0.000008
0 38 C U 0.000515
0 38 C G 0.000002
0 38 C - -0.000022
0 38 U A 0.000024
0 38 U C -0.000025
0 38 U U 0.000695
0 38 U G -0.000043
0 38 U - -0.000049
0 38 G A -0.000047
0 38 G C -0.000056
0 38 G U 0.000006
0 38 G G -0.000047
0 38 G - 0.000023
0 38 - A 0.000003
0 38 - C 0.000017
0 38 - U -0.000012
0 38 - G -0.000016
0 38 - - 0.000000
0 39 A A -0.012106
0 39 A C -0.000501
0 39 A U 0.005982
0 39 A G -0.000078
0 39 A - 0.000705
0 39 C A 0.000479
0 39 C C 0.000023
0 39 C U -0.000011
0 39 C G 0.000027
0 39 C - 0.000020
0 39 U A 0.001070
0 39 U C -0.000046
0 39 U U 0.000044
0 39 U G 0.000010
0 39 U - -0.000010
0 39 G A -0.000010
0 39 G C 0.000024
0 39 G U 0.000030
0 39 G G 0.000027
0 39 G - -0.000020
0 39 - A -0.000035
0 39 - C 0.000007
0 39 - U -0.000022
0 39 - G 0.000005
0 39 - - 0.000021
0 40 A A -0.121024
0 40 A C 0.000613
0 40 A U -0.001202
0 40 A G 0.000793
0 40 A - 0.001603
0 40 C A 0.000567
0 40 C C -0.000024
0 40 C U -0.000010
0 40 C G -0.000033
0 40 C - -0.000042
0 40 U A 0.000824
0 40 U C -0.000021
0 40 U U -0.000001
0 40 U G 0.000029
0 40 U - 0.000003
0 40 G A 0.000021
0 40 G C -0.000022
0 40 G U -0.000033
0 40 G G -0.000036
0 40 G - 0.000012
0 40 - A -0.000037
0 40 - C -0.000005
0 40 - U -0.000003
0 40 - G 0.000047
0 40 - - 0.000047
0 41 A A -0.000951
0 41 A C 0.000024
0 41 A U -0.009226
0 41 A G 0.001785
0 41 A - 0.014747
0 41 C A -0.000013
0 41 C C -0.000001
0 41 C U 0.000478
0 41 C G 0.000020
0 41 C - 0.000004
0 41 U A 0.000013
0 41 U C 0.000044
0 41 U U 0.000798
0 41 U G 0.000049
0 41 U - -0.000013
0 41 G A 0.000032
0 41 G C 0.000036
0 41 G U -0.000020
0 41 G G -0.001392
0 41 G - -0.000048
0 41 - A 0.000005
0 41 - C 0.000018
0 41 - U 0.000016
0 41 - G 0.000008
0 41 - - 0.000029
0 42 A A -0.001026
0 42 A C -0.004168
0 42 A U 0.001759
0 42 A G -0.001198
0 42 A - 0.000413
0 42 C A -0.000023
0 42 C C -0.000039
0 42 C U 0.000013
0 42 C G 0.000489
0 42 C - 0.000028
0 42 U A 0.000011
0 42 U C 0.000012
0 42 U U 0.000674
0 42 U G 0.000023
0 42 U - -0.000017
0 42 G A 0.000009
0 42 G C -0.000002
0 42 G U 0.000009
0 42 G G -0.000959
0 42 G - 0.000032
0 42 - A 0.000029
0 42 - C 0.000012
0 42 - U 0.000030
0 42 - G 0.000602
0 42 - - -0.000039
0 43 A A -0.000022
0 43 A C 0.000032
0 43 A U -0.000005
0 43 A G -0.114491
0 43 A - 0.001766
0 43 C A 0.000012
0 43 C C 0.000010
0 43 C U -0.000007
0 43 C G 0.000598
0 43 C - 0.000009
0 43 U A 0.000016
0 43 U C 0.000012
0 43 U U -0.000004
0 43 U G 0.000651
0 43 U - 0.000034
0 43 G A -0.000051
0 43 G C 0.000046
0 43 G U 0.000034
0 43 G G -0.000003
0 43 G - 0.000016
0 43 - A -0.000010
0 43 - C -0.000003
0 43 - U 0.000033
0 43 - G 0.000005
0 43 - - -0.000007
0 44 A A 0.000684
0 44 A C 0.000021
0 44 A U 0.000220
0 44 A G -0.029571
0 44 A - 0.000339
0 44 C A 0.000007
0 44 C C -0.000042
0 44 C U 0.000022
0 44 C G 0.001133
0 44 C - -0.000041
0 44 U A -0.000023
0 44 U C 0.000021
0 44 U U 0.000022
0 44 U G 0.000510
0 44 U - 0.000025
0 44 G A 0.000007
0 44 G C 0.000043
0 44 G U 0.000007
0 44 G G -0.000273
0 44 G - 0.000022
0 44 - A 0.000021
0 44 - C -0.000016
0 44 - U 0.000022
0 44 - G 0.000028
0 44 - - 0.000007
0 45 A A 0.000033
0 45 A C -0.000027
0 45 A U 0.000029
0 45 A G -0.070333
0 45 A - 0.000007
0 45 C A -0.000023
0 45 C C -0.000040
0 45 C U -0.000040
0 45 C G 0.001448
0 45 C - -0.000040
0 45 U A -0.000023
0 45 U C 0.000008
0 45 U U -0.000027
0 45 U G 0.000629
0 45 U - -0.000040
0 45 G A -0.000040
0 45 G C -0.000024
0 45 G U -0.000040
0 45 G G -0.000242
0 45 G - -0.000024
0 45 - A -0.000023
0 45 - C 0.000007
0 45 - U 0.000008
0 45 - G -0.000016
0 45 - - -0.000006
0 46 A A -0.000045
0 46 A C -0.000037
0 46 A U -0.042532
0 46 A G 0.000047
0 46 A - -0.000040
0 46 C A 0.000000
0 46 C C -0.000011
0 46 C U 0.001271
0 46 C G -0.000011
0 46 C - 0.000001
0 46 U A 0.000893
0 46 U C -0.000011
0 46 U U -0.000120
0 46 U G -0.000011
0 46 U - 0.000003
0 46 G A 0.000039
0 46 G C 0.000003
0 46 G U -0.000225
0 46 G G -0.000011
0 46 G - 0.000007
0 46 - A 0.000017
0 46 - C -0.000011
0 46 - U -0.000043
0 46 - G 0.000046
0 46 - - -0.000011
0 47 A A -0.000027
0 47 A C 0.000728
0 47 A U -0.001628
0 47 A G -0.011763
0 47 A - 0.001371
0 47 C A -0.000016
0 47 C C 0.000048
0 47 C U -0.000047
0 47 C G 0.001074
0 47 C - -0.000047
0 47 U A -0.000036
0 47 U C 0.000004
0 47 U U 0.000005
0 47 U G 0.000505
0 47 U - -0.000044
0 47 G A -0.000016
0 47 G C -0.000047
0 47 G U -0.000022
0 47 G G 0.000003
0 47 G - 0.000013
0 47 - A -0.000016
0 47 - C 0.000024
0 47 - U 0.000016
0 47 - G 0.000000
0 47 - - -0.000012
0 48 A A 0.000100
0 48 A C -0.058789
0 48 A U 0.000033
0 48 A G 0.000042
0 48 A - -0.000018
0 48 C A 0.000038
0 48 C C 0.001330
0 48 C U 0.000031
0 48 C G 0.000044
0 48 C - -0.000009
0 48 U A 0.000032
0 48 U C 0.000581
0 48 U U 0.000026
0 48 U G 0.000043
0 48 U - 0.000026
0 48 G A 0.000010
0 48 G C -0.000219
0 48 G U 0.000010
0 48 G G 0.000029
0 48 G - 0.000010
0 48 - A 0.000010
0 48 - C 0.000018
0 48 - U 0.000041
0 48 - G 0.000027
0 48 - - 0.000010
0 49 A A -0.011946
0 49 A C 0.000019
0 49 A U -0.000019
0 49 A G -0.003011
0 49 A - 0.001242
0 49 C A 0.000498
0 49 C C 0.000018
0 49 C U 0.000047
0 49 C G -0.000020
0 49 C - -0.000020
0 49 U A 0.000684
0 49 U C 0.000047
0 49 U U -0.000017
0 49 U G -0.000011
0 49 U - -0.000002
0 49 G A -0.000295
0 49 G C 0.000021
0 49 G U -0.000001
0 49 G G -0.000049
0 49 G - -0.000023
0 49 - A 0.001421
0 49 - C -0.000037
0 49 - U -0.000020
0 49 - G -0.000012
0 49 - - -0.000039
0 50 A A -0.016748
0 50 A C -0.000033
0 50 A U -0.000041
0 50 A G 0.000048
0 50 A - -0.000023
0 50 C A 0.000504
0 50 C C 0.000036
0 50 C U 0.000013
0 50 C G 0.000011
0 50 C - -0.000001
0 50 U A 0.000511
0 50 U C -0.000045
0 50 U U 0.000013
0 50 U G 0.000036
0 50 U - 0.000045
0 50 G A -0.000304
0 50 G C 0.000015
0 50 G U 0.000013
0 50 G G 0.000013
0 50 G - 0.000051
0 50 - A -0.000020
0 50 - C 0.000015
0 50 - U 0.000013
0 50 - G 0.000015
0 50 - - -0.000001
0 51 A A -0.001014
0 51 A C -0.028559
0 51 A U -0.000028
0 51 A G 0.000894
0 51 A - 0.000041
0 51 C A 0.000479
0 51 C C 0.000024
0 51 C U 0.000039
0 51 C G 0.000040
0 51 C - 0.000028
0 51 U A -0.000005
0 51 U C 0.000562
0 51 U U -0.000028
0 51 U G 0.000020
0 51 U - -0.000021
0 51 G A -0.000059
0 51 G C 0.000026
0 51 G U -0.000070
0 51 G G 0.000010
0 51 G - 0.000020
0 51 - A -0.000048
0 51 - C -0.000062
0 51 - U 0.000038
0 51 - G -0.000030
0 51 - - -0.000012
0 52 A A 0.000005
0 52 A C 0.000365
0 52 A U -0.117638
0 52 A G 0.000001
0 52 A - 0.002009
0 52 C A -0.000045
0 52 C C -0.000011
0 52 C U 0.000686
0 52 C G 0.000011
0 52 C - -0.000032
0 52 U A -0.000018
0 52 U C -0.000019
0 52 U U 0.000686
0 52 U G -0.000012
0 52 U - -0.000004
0 52 G A 0.000042
0 52 G C 0.000009
0 52 G U -0.000120
0 52 G G 0.000037
0 52 G - -0.000025
0 52 - A 0.000019
0 52 - C 0.000021
0 52 - U 0.001331
0 52 - G 0.000052
0 52 - - 0.000009
0 53 A A 0.000011
0 53 A C -0.027878
0 53 A U 0.000544
0 53 A G 0.000024
0 53 A - 0.000008
0 53 C A 0.000006
0 53 C C 0.001141
0 53 C U 0.000047
0 53 C G 0.000047
0 53 C - -0.000038
0 53 U A 0.000005
0 53 U C -0.000156
0 53 U U -0.000014
0 53 U G 0.000877
0 53 U - 0.000012
0 53 G A -0.000004
0 53 G C -0.000308
0 53 G U -0.000036
0 53 G G 0.000047
0 53 G - -0.000037
0 53 - A 0.000047
0 53 - C -0.000037
0 53 - U -0.000022
0 53 - G 0.000047
0 53 - - 0.000047
0 54 A A -0.000010
0 54 A C -0.056681
0 54 A U -0.000010
0 54 A G 0.000037
0 54 A - 0.000051
0 54 C A -0.000020
0 54 C C 0.001282
0 54 C U -0.000019
0 54 C G -0.000037
0 54 C - -0.000020
0 54 U A -0.000037
0 54 U C 0.000562
0 54 U U -0.000009
0 54 U G -0.000003
0 54 U - 0.000032
0 54 G A -0.000021
0 54 G C -0.000249
0 54 G U -0.000037
0 54 G G -0.000002
0 54 G - -0.000002
0 54 - A -0.000037
0 54 - C -0.000008
0 54 - U -0.000003
0 54 - G 0.000020
0 54 - - -0.000037
0 55 A A 0.000005
0 55 A C -0.122379
0 55 A U 0.000425
0 55 A G 0.000470
0 55 A - -0.000033
0 55 C A 0.000047
0 55 C C 0.001821
0 55 C U -0.000008
0 55 C G -0.000011
0 55 C - 0.000010
0 55 U A 0.000025
0 55 U C 0.000668
0 55 U U 0.000006
0 55 U G -0.000011
0 55 U - -0.000014
0 55 G A -0.000032
0 55 G C -0.000022
0 55 G U -0.000022
0 55 G G -0.000011
0 55 G - 0.000012
0 55 - A -0.000026
0 55 - C -0.000034
0 55 - U -0.000013
0 55 - G -0.000013
0 55 - - 0.000030
0 56 A A 0.000636
0 56 A C -0.000461
0 56 A U 0.000008
0 56 A G -0.002699
0 56 A - -0.000068
0 56 C A 0.000001
0 56 C C 0.000521
0 56 C U 0.000011
0 56 C G 0.000025
0 56 C - 0.000008
0 56 U A 0.000048
0 56 U C 0.000599
0 56 U U 0.000028
0 56 U G 0.000049
0 56 U - 0.000027
0 56 G A 0.000032
0 56 G C -0.000360
0 56 G U 0.000032
0 56 G G 0.000017
0 56 G - 0.000009
0 56 - A 0.000027
0 56 - C -0.000048
0 56 - U 0.000001
0 56 - G -0.000028
0 56 - - -0.000027
0 57 A A 0.001277
0 57 A C -0.001158
0 57 A U 0.000015
0 57 A G -0.000033
0 57 A - -0.010365
0 57 C A 0.000044
0 57 C C 0.001065
0 57 C U -0.000009
0 57 C G 0.000003
0 57 C - 0.000009
0 57 U A -0.000002
0 57 U C 0.000599
0 57 U U 0.000013
0 57 U G -0.000023
0 57 U - -0.000021
0 57 G A -0.000003
0 57 G C -0.000341
0 57 G U -0.000001
0 57 G G 0.000013
0 57 G - 0.000008
0 57 - A -0.000006
0 57 - C 0.000019
0 57 - U 0.000012
0 57 - G 0.000010
0 57 - - -0.000033
0 58 A A 0.000984
0 58 A C -0.007270
0 58 A U 0.000009
0 58 A G -0.001131
0 58 A - 0.000032
0 58 C A 0.000001
0 58 C C 0.000994
0 58 C U -0.000009
0 58 C G -0.000032
0 58 C - -0.000010
0 58 U A 0.000027
0 58 U C 0.000815
0 58 U U 0.000050
0 58 U G -0.000024
0 58 U - 0.000043
0 58 G A -0.000022
0 58 G C -0.000317
0 58 G U 0.000014
0 58 G G 0.000020
0 58 G - 0.000026
0 58 - A -0.000046
0 58 - C 0.000017
0 58 - U -0.000030
0 58 - G -0.000027
0 58 - - -0.000002
0 59 A A 0.000029
0 59 A C -0.193800
0 59 A U -0.000433
0 59 A G 0.000313
0 59 A - 0.000213
0 59 C A 0.000018
0 59 C C 0.000012
0 59 C U 0.000635
0 59 C G -0.000025
0 59 C - 0.000000
0 59 U A -0.000029
0 59 U C 0.000005
0 59 U U -0.000000
0 59 U G 0.000016
0 59 U - 0.000913
0 59 G A -0.000018
0 59 G C -0.000044
0 59 G U -0.000028
0 59 G G -0.000000
0 59 G - 0.000022
0 59 - A -0.000037
0 59 - C 0.001069
0 59 - U -0.000058
0 59 - G 0.000016
0 59 - - -0.000018
0 60 A A 0.000036
0 60 A C -0.201110
0 60 A U 0.003289
0 60 A G 0.000043
0 60 A - 0.000049
0 60 C A 0.000042
0 60 C C 0.001462
0 60 C U 0.000007
0 60 C G -0.000018
0 60 C - -0.000015
0 60 U A -0.000013
0 60 U C 0.000729
0 60 U U -0.000040
0 60 U G 0.000004
0 60 U - 0.000004
0 60 G A 0.000039
0 60 G C 0.000038
0 60 G U 0.000013
0 60 G G -0.000018
0 60 G - -0.000035
0 60 - A -0.000039
0 60 - C -0.000002
0 60 - U 0.000009
0 60 - G 0.000042
0 60 - - 0.000051
0 61 A A 0.003070
0 61 A C -0.000246
0 61 A U -0.096743
0 61 A G -0.000082
0 61 A - 0.000530
0 61 C A -0.000015
0 61 C C 0.000001
0 61 C U 0.000593
0 61 C G 0.000001
0 61 C - -0.000044
0 61 U A 0.000917
0 61 U C -0.000030
0 61 U U -0.000000
0 61 U G 0.000127
0 61 U - -0.000036
0 61 G A 0.000002
0 61 G C 0.000053
0 61 G U -0.000037
0 61 G G -0.000010
0 61 G - 0.000002
0 61 - A -0.000040
0 61 - C 0.000048
0 61 - U 0.000011
0 61 - G 0.000048
0 61 - - 0.000028
0 62 A A 0.000357
0 62 A C -0.000080
0 62 A U -0.012163
0 62 A G 0.011388
0 62 A - -0.000605
0 62 C A 0.000535
0 62 C C 0.000022
0 62 C U 0.000004
0 62 C G 0.000039
0 62 C - -0.000025
0 62 U A 0.000007
0 62 U C 0.000007
0 62 U U -0.000005
0 62 U G -0.000050
0 62 U - 0.000874
0 62 G A -0.000846
0 62 G C -0.000031
0 62 G U -0.000009
0 62 G G 0.000048
0 62 G - -0.000032
0 62 - A 0.000017
0 62 - C -0.000025
0 62 - U -0.000027
0 62 - G 0.000003
0 62 - - -0.000023
0 63 A A -0.004187
0 63 A C 0.000787
0 63 A U -0.009770
0 63 A G 0.001101
0 63 A - 0.000384
0 63 C A 0.000510
0 63 C C 0.000040
0 63 C U -0.000034
0 63 C G 0.000032
0 63 C - 0.000031
0 63 U A 0.000020
0 63 U C -0.000079
0 63 U U 0.000795
0 63 U G -0.000019
0 63 U - 0.000020
0 63 G A -0.000033
0 63 G C 0.000050
0 63 G U 0.000007
0 63 G G -0.000019
0 63 G - -0.000021
0 63 - A 0.000013
0 63 - C 0.000041
0 63 - U -0.000054
0 63 - G 0.000007
0 63 - - 0.000028
0 64 A A 0.000621
0 64 A C -0.000375
0 64 A U -0.046720
0 64 A G -0.000062
0 64 A - -0.000018
0 64 C A 0.000039
0 64 C C 0.000535
0 64 C U -0.000006
0 64 C G -0.000006
0 64 C - 0.000020
0 64 U A 0.000037
0 64 U C -0.000043
0 64 U U 0.000022
0 64 U G 0.000892
0 64 U - -0.000009
0 64 G A 0.000043
0 64 G C -0.000687
0 64 G U -0.000033
0 64 G G -0.000008
0 64 G - -0.000043
0 64 - A 0.000020
0 64 - C -0.000020
0 64 - U 0.000034
0 64 - G 0.000039
0 64 - - -0.000042
0 65 A A 0.001522
0 65 A C -0.013478
0 65 A U -0.002104
0 65 A G -0.000000
0 65 A - -0.000043
0 65 C A -0.000023
0 65 C C 0.000518
0 65 C U 0.000043
0 65 C G 0.000031
0 65 C - 0.000004
0 65 U A 0.000008
0 65 U C 0.001000
0 65 U U -0.000029
0 65 U G -0.000022
0 65 U - -0.000034
0 65 G A -0.000016
0 65 G C -0.000088
0 65 G U 0.000023
0 65 G G 0.000005
0 65 G - 0.000005
0 65 - A -0.000031
0 65 - C 0.000016
0 65 - U 0.000045
0 65 - G -0.000035
0 65 - - -0.000017
0 66 A A 0.000570