# NB_STEPS 3000
# UP_FREQ 1000
# TEMP 1.000000
# LAMBDA 0.050000
# ID_THRES 1.000000
# ALPHA 1.000000
0 0 A A -0.007346
0 0 C C 0.001590
0 0 U U 0.000147
0 0 G G 0.000114
0 0 - - 0.013474
0 1 A A -0.000009
0 1 A C -0.030873
0 1 A U -0.000077
0 1 A G -0.000008
0 1 A - -0.000036
0 1 C A 0.000000
0 1 C C 0.000916
0 1 C U 0.000008
0 1 C G -0.000044
0 1 C - -0.000042
0 1 U A 0.000251
0 1 U C 0.000794
0 1 U U -0.000075
0 1 U G -0.000003
0 1 U - 0.000033
0 1 G A 0.000038
0 1 G C -0.001709
0 1 G U 0.000258
0 1 G G -0.000017
0 1 G - -0.000023
0 1 - A 0.000013
0 1 - C 0.000405
0 1 - U 0.000905
0 1 - G 0.000008
0 1 - - -0.000050
0 2 A A -0.012043
0 2 A C -0.000011
0 2 A U 0.000030
0 2 A G 0.001614
0 2 A - 0.000039
0 2 C A 0.000004
0 2 C C 0.000020
0 2 C U 0.000047
0 2 C G 0.000919
0 2 C - -0.000036
0 2 U A 0.002240
0 2 U C -0.000005
0 2 U U 0.000026
0 2 U G -0.005903
0 2 U - 0.000033
0 2 G A -0.082936
0 2 G C 0.000754
0 2 G U 0.000035
0 2 G G 0.001541
0 2 G - 0.000314
0 2 - A 0.000991
0 2 - C 0.000028
0 2 - U 0.000047
0 2 - G 0.000049
0 2 - - 0.000015
0 3 A A 0.000026
0 3 A C 0.000289
0 3 A U -0.000024
0 3 A G -0.157003
0 3 A - -0.000001
0 3 C A -0.000001
0 3 C C 0.000002
0 3 C U -0.000018
0 3 C G 0.005072
0 3 C - -0.000016
0 3 U A -0.000012
0 3 U C 0.000054
0 3 U U 0.000038
0 3 U G -0.001750
0 3 U - -0.000035
0 3 G A -0.000141
0 3 G C 0.000050
0 3 G U -0.000010
0 3 G G 0.000517
0 3 G - 0.000050
0 3 - A -0.000014
0 3 - C -0.000036
0 3 - U 0.000034
0 3 - G 0.025047
0 3 - - -0.000022
0 4 A A -0.031264
0 4 A C 0.000318
0 4 A U -0.000004
0 4 A G -0.000020
0 4 A - 0.000026
0 4 C A 0.001378
0 4 C C -0.000015
0 4 C U -0.000015
0 4 C G -0.000005
0 4 C - -0.000017
0 4 U A 0.000760
0 4 U C 0.000187
0 4 U U -0.000014
0 4 U G -0.000084
0 4 U - -0.000023
0 4 G A -0.064063
0 4 G C 0.000044
0 4 G U 0.000038
0 4 G G -0.000024
0 4 G - 0.000020
0 4 - A 0.004459
0 4 - C 0.000038
0 4 - U -0.000007
0 4 - G -0.000017
0 4 - - -0.000048
0 5 A A -0.000047
0 5 A C 0.000032
0 5 A U -0.000011
0 5 A G -0.119989
0 5 A - 0.000023
0 5 C A -0.000032
0 5 C C 0.000008
0 5 C U -0.000033
0 5 C G 0.001301
0 5 C - -0.000029
0 5 U A -0.000009
0 5 U C -0.000043
0 5 U U 0.000005
0 5 U G -0.000206
0 5 U - 0.000008
0 5 G A -0.000020
0 5 G C 0.000048
0 5 G U -0.000001
0 5 G G 0.000183
0 5 G - 0.000052
0 5 - A 0.000032
0 5 - C -0.000047
0 5 - U -0.000030
0 5 - G 0.038151
0 5 - - -0.000014
0 6 A A 0.000002
0 6 A C -0.000019
0 6 A U -0.031439
0 6 A G 0.000006
0 6 A - 0.000021
0 6 C A -0.000011
0 6 C C 0.000004
0 6 C U 0.000919
0 6 C G -0.000015
0 6 C - -0.000011
0 6 U A 0.000040
0 6 U C -0.000011
0 6 U U 0.000012
0 6 U G 0.000036
0 6 U - -0.000003
0 6 G A -0.000017
0 6 G C 0.000040
0 6 G U -0.001221
0 6 G G 0.000029
0 6 G - -0.000018
0 6 - A 0.000020
0 6 - C -0.000028
0 6 - U 0.014367
0 6 - G 0.000019
0 6 - - 0.000041
0 7 A A -0.027401
0 7 A C 0.000005
0 7 A U 0.000048
0 7 A G 0.000009
0 7 A - 0.000028
0 7 C A 0.000963
0 7 C C 0.000013
0 7 C U 0.000015
0 7 C G 0.000044
0 7 C - 0.000033
0 7 U A 0.000132
0 7 U C -0.000034
0 7 U U -0.000004
0 7 U G -0.000040
0 7 U - 0.000029
0 7 G A -0.000783
0 7 G C 0.000041
0 7 G U -0.000001
0 7 G G 0.000025
0 7 G - -0.000000
0 7 - A 0.009756
0 7 - C -0.000005
0 7 - U -0.000005
0 7 - G 0.000046
0 7 - - -0.000002
0 8 A A -0.001228
0 8 A C 0.000022
0 8 A U 0.000407
0 8 A G -0.004953
0 8 A - -0.000019
0 8 C A 0.000046
0 8 C C 0.000028
0 8 C U 0.000033
0 8 C G 0.000966
0 8 C - 0.000000
0 8 U A 0.000159
0 8 U C 0.000041
0 8 U U 0.000008
0 8 U G -0.082151
0 8 U - 0.000017
0 8 G A -0.024375
0 8 G C -0.000012
0 8 G U 0.001377
0 8 G G 0.000797
0 8 G - -0.000025
0 8 - A -0.000036
0 8 - C 0.000016
0 8 - U 0.000027
0 8 - G 0.000842
0 8 - - 0.000048
0 9 A A -0.002428
0 9 A C -0.000063
0 9 A U -0.000037
0 9 A G -0.000135
0 9 A - -0.000054
0 9 C A -0.000049
0 9 C C 0.000048
0 9 C U -0.000010
0 9 C G 0.000918
0 9 C - -0.000026
0 9 U A -0.029706
0 9 U C 0.000028
0 9 U U 0.000333
0 9 U G -0.000062
0 9 U - -0.000031
0 9 G A 0.001272
0 9 G C 0.001679
0 9 G U -0.001090
0 9 G G -0.001823
0 9 G - 0.001281
0 9 - A -0.000008
0 9 - C -0.000009
0 9 - U 0.000008
0 9 - G 0.000808
0 9 - - -0.000042
0 10 A A -0.000234
0 10 A C 0.000215
0 10 A U -0.000791
0 10 A G -0.000086
0 10 A - 0.000007
0 10 C A 0.000981
0 10 C C 0.000030
0 10 C U -0.000025
0 10 C G -0.000049
0 10 C - 0.000008
0 10 U A -0.019482
0 10 U C -0.000003
0 10 U U 0.001592
0 10 U G 0.000576
0 10 U - -0.000026
0 10 G A 0.001011
0 10 G C -0.000087
0 10 G U -0.029539
0 10 G G 0.002413
0 10 G - 0.000181
0 10 - A 0.000827
0 10 - C 0.000008
0 10 - U -0.000042
0 10 - G -0.000034
0 10 - - -0.000025
0 11 A A -0.000400
0 11 A C 0.000273
0 11 A U 0.000543
0 11 A G -0.002277
0 11 A - -0.000005
0 11 C A -0.000006
0 11 C C -0.000007
0 11 C U 0.000979
0 11 C G -0.000023
0 11 C - 0.000020
0 11 U A -0.000054
0 11 U C 0.000723
0 11 U U -0.000014
0 11 U G 0.001000
0 11 U - 0.000054
0 11 G A 0.003327
0 11 G C -0.000031
0 11 G U -0.126702
0 11 G G 0.001095
0 11 G - 0.000809
0 11 - A -0.000011
0 11 - C 0.000022
0 11 - U 0.000019
0 11 - G 0.000886
0 11 - - 0.000002
0 12 A A -0.000472
0 12 A C -0.000078
0 12 A U -0.000222
0 12 A G -0.000001
0 12 A - 0.000033
0 12 C A 0.000020
0 12 C C 0.000900
0 12 C U -0.000057
0 12 C G -0.000048
0 12 C - -0.000048
0 12 U A 0.001092
0 12 U C -0.000017
0 12 U U -0.000360
0 12 U G -0.000042
0 12 U - 0.000789
0 12 G A -0.000007
0 12 G C 0.000974
0 12 G U -0.004188
0 12 G G 0.000275
0 12 G - 0.000036
0 12 - A 0.000896
0 12 - C 0.000013
0 12 - U 0.000030
0 12 - G 0.000038
0 12 - - 0.000031
0 13 A A -0.001041
0 13 A C -0.000000
0 13 A U -0.000598
0 13 A G 0.001561
0 13 A - 0.000153
0 13 C A -0.000032
0 13 C C -0.000004
0 13 C U 0.000041
0 13 C G 0.000036
0 13 C - 0.000942
0 13 U A -0.041972
0 13 U C 0.000035
0 13 U U 0.000413
0 13 U G 0.000003
0 13 U - -0.000035
0 13 G A 0.121309
0 13 G C -0.037959
0 13 G U -0.077656
0 13 G G 0.000856
0 13 G - -0.000009
0 13 - A 0.000034
0 13 - C -0.000002
0 13 - U 0.000808
0 13 - G -0.000047
0 13 - - 0.000006
0 14 A A -0.000503
0 14 A C -0.000026
0 14 A U -0.000006
0 14 A G -0.003107
0 14 A - 0.000533
0 14 C A -0.000030
0 14 C C -0.000025
0 14 C U 0.000933
0 14 C G -0.000039
0 14 C - -0.000023
0 14 U A -0.000915
0 14 U C -0.000033
0 14 U U 0.001653
0 14 U G -0.000033
0 14 U - -0.000023
0 14 G A -0.001913
0 14 G C 0.000869
0 14 G U 0.000872
0 14 G G -0.001022
0 14 G - 0.000517
0 14 - A 0.000008
0 14 - C 0.000814
0 14 - U 0.000039
0 14 - G 0.000030
0 14 - - -0.000034
0 15 A A -0.001093
0 15 A C -0.000887
0 15 A U 0.000464
0 15 A G 0.001336
0 15 A - -0.000006
0 15 C A -0.000046
0 15 C C -0.000017
0 15 C U 0.000922
0 15 C G 0.000035
0 15 C - 0.000044
0 15 U A -0.128576
0 15 U C -0.000008
0 15 U U 0.000528
0 15 U G 0.000024
0 15 U - 0.000850
0 15 G A 0.015047
0 15 G C 0.002814
0 15 G U -0.096107
0 15 G G -0.000060
0 15 G - 0.000144
0 15 - A 0.000046
0 15 - C 0.000054
0 15 - U 0.000878
0 15 - G 0.000039
0 15 - - -0.000017
0 16 A A -0.000015
0 16 A C -0.000013
0 16 A U 0.000045
0 16 A G -0.008034
0 16 A - 0.000012
0 16 C A -0.000045
0 16 C C -0.000023
0 16 C U 0.000023
0 16 C G 0.000942
0 16 C - 0.000039
0 16 U A -0.000048
0 16 U C -0.000024
0 16 U U 0.000029
0 16 U G -0.000215
0 16 U - 0.000722
0 16 G A -0.000031
0 16 G C -0.000034
0 16 G U -0.000051
0 16 G G -0.002366
0 16 G - 0.000031
0 16 - A -0.000039
0 16 - C 0.000018
0 16 - U 0.000040
0 16 - G 0.006405
0 16 - - -0.000017
0 17 A A -0.000030
0 17 A C -0.047893
0 17 A U 0.000006
0 17 A G 0.000375
0 17 A - -0.000028
0 17 C A 0.000048
0 17 C C -0.000008
0 17 C U 0.000999
0 17 C G 0.000013
0 17 C - -0.000024
0 17 U A -0.000056
0 17 U C -0.000436
0 17 U U -0.000048
0 17 U G 0.000513
0 17 U - 0.000744
0 17 G A 0.000021
0 17 G C 0.000172
0 17 G U -0.000027
0 17 G G -0.000053
0 17 G - -0.000024
0 17 - A 0.000013
0 17 - C 0.008473
0 17 - U -0.000004
0 17 - G -0.000004
0 17 - - -0.000007
0 18 A A 0.000037
0 18 A C -0.000036
0 18 A U 0.000023
0 18 A G -0.028862
0 18 A - 0.000000
0 18 C A -0.000046
0 18 C C -0.000010
0 18 C U 0.000039
0 18 C G 0.000923
0 18 C - 0.000022
0 18 U A -0.000043
0 18 U C 0.000015
0 18 U U -0.000044
0 18 U G 0.000089
0 18 U - -0.000042
0 18 G A -0.000027
0 18 G C 0.000803
0 18 G U -0.000014
0 18 G G -0.003819
0 18 G - -0.000004
0 18 - A 0.000017
0 18 - C -0.000009
0 18 - U 0.000006
0 18 - G 0.018724
0 18 - - 0.000017
0 19 A A 0.000010
0 19 A C 0.000029
0 19 A U -0.032031
0 19 A G 0.001166
0 19 A - 0.000424
0 19 C A 0.000028
0 19 C C -0.000028
0 19 C U 0.000950
0 19 C G 0.000017
0 19 C - 0.000019
0 19 U A 0.000045
0 19 U C 0.000014
0 19 U U 0.000338
0 19 U G 0.000047
0 19 U - 0.000007
0 19 G A 0.000190
0 19 G C -0.000022
0 19 G U -0.000842
0 19 G G 0.000038
0 19 G - 0.000748
0 19 - A 0.000008
0 19 - C 0.000001
0 19 - U 0.014849
0 19 - G 0.000831
0 19 - - 0.000034
0 20 A A -0.000023
0 20 A C -0.000985
0 20 A U -0.000563
0 20 A G -0.000051
0 20 A - -0.000010
0 20 C A 0.000029
0 20 C C -0.000045
0 20 C U 0.000953
0 20 C G 0.000027
0 20 C - -0.000028
0 20 U A 0.000008
0 20 U C -0.000033
0 20 U U -0.008598
0 20 U G -0.000010
0 20 U - -0.000019
0 20 G A -0.001200
0 20 G C 0.000581
0 20 G U -0.001434
0 20 G G 0.000309
0 20 G - 0.001621
0 20 - A -0.000010
0 20 - C 0.000026
0 20 - U 0.000831
0 20 - G -0.000003
0 20 - - 0.000021
0 21 A A -0.008139
0 21 A C -0.000038
0 21 A U 0.000041
0 21 A G 0.000029
0 21 A - -0.000018
0 21 C A 0.000946
0 21 C C 0.000017
0 21 C U -0.000044
0 21 C G 0.000015
0 21 C - 0.000015
0 21 U A -0.000686
0 21 U C -0.000001
0 21 U U 0.000781
0 21 U G 0.000048
0 21 U - -0.000044
0 21 G A -0.001622
0 21 G C 0.001261
0 21 G U 0.000031
0 21 G G -0.000046
0 21 G - -0.000015
0 21 - A 0.009553
0 21 - C 0.000004
0 21 - U -0.000012
0 21 - G 0.000005
0 21 - - -0.000001
0 22 A A -0.026219
0 22 A C -0.000046
0 22 A U 0.000269
0 22 A G 0.000337
0 22 A - 0.000030
0 22 C A 0.000909
0 22 C C -0.000040
0 22 C U -0.000022
0 22 C G 0.000026
0 22 C - -0.000039
0 22 U A 0.000828
0 22 U C 0.000044
0 22 U U -0.000026
0 22 U G -0.000013
0 22 U - 0.000002
0 22 G A -0.004077
0 22 G C -0.000016
0 22 G U 0.000000
0 22 G G -0.000010
0 22 G - 0.000043
0 22 - A 0.012806
0 22 - C -0.000017
0 22 - U -0.000006
0 22 - G -0.000039
0 22 - - -0.000025
0 23 A A -0.000038
0 23 A C -0.000048
0 23 A U -0.000046
0 23 A G -0.033482
0 23 A - -0.000001
0 23 C A 0.000040
0 23 C C -0.000001
0 23 C U -0.000006
0 23 C G 0.001835
0 23 C - -0.000011
0 23 U A 0.000005
0 23 U C 0.000027
0 23 U U -0.000018
0 23 U G 0.000584
0 23 U - 0.000025
0 23 G A 0.000004
0 23 G C -0.000013
0 23 G U -0.000028
0 23 G G -0.005647
0 23 G - -0.000027
0 23 - A 0.000007
0 23 - C 0.000004
0 23 - U -0.000036
0 23 - G 0.009090
0 23 - - 0.000023
0 24 A A -0.000009
0 24 A C 0.000572
0 24 A U -0.020306
0 24 A G 0.000023
0 24 A - 0.000219
0 24 C A 0.000017
0 24 C C 0.000014
0 24 C U 0.001830
0 24 C G -0.000035
0 24 C - 0.000023
0 24 U A 0.000045
0 24 U C 0.000031
0 24 U U 0.000538
0 24 U G -0.000052
0 24 U - 0.000004
0 24 G A -0.000044
0 24 G C -0.000002
0 24 G U -0.001111
0 24 G G 0.000039
0 24 G - 0.000019
0 24 - A 0.000036
0 24 - C 0.000020
0 24 - U 0.010074
0 24 - G 0.000047
0 24 - - 0.000037
0 25 A A 0.000008
0 25 A C 0.000008
0 25 A U 0.000005
0 25 A G -0.012007
0 25 A - -0.000006
0 25 C A 0.000033
0 25 C C 0.000001
0 25 C U -0.000004
0 25 C G 0.000878
0 25 C - -0.000049
0 25 U A -0.000007
0 25 U C 0.000034
0 25 U U -0.000039
0 25 U G 0.000063
0 25 U - -0.000025
0 25 G A -0.000024
0 25 G C -0.000042
0 25 G U 0.000035
0 25 G G -0.003197
0 25 G - 0.000001
0 25 - A -0.000008
0 25 - C -0.000006
0 25 - U -0.000041
0 25 - G 0.009715
0 25 - - 0.000004
0 26 A A 0.000000
0 26 A C 0.001058
0 26 A U -0.018309
0 26 A G -0.000017
0 26 A - 0.000022
0 26 C A -0.000029
0 26 C C 0.000946
0 26 C U 0.000001
0 26 C G -0.000012
0 26 C - 0.000038
0 26 U A 0.000031
0 26 U C -0.035865
0 26 U U 0.001658
0 26 U G 0.000020
0 26 U - -0.000016
0 26 G A 0.001286
0 26 G C -0.001551
0 26 G U -0.000348
0 26 G G 0.000002
0 26 G - -0.000015
0 26 - A -0.000014
0 26 - C 0.000004
0 26 - U -0.000027
0 26 - G -0.000015
0 26 - - 0.000894
0 27 A A -0.000041
0 27 A C -0.001930
0 27 A U -0.000094
0 27 A G -0.000058
0 27 A - 0.000216
0 27 C A -0.000034
0 27 C C -0.000033
0 27 C U 0.000970
0 27 C G 0.000033
0 27 C - -0.000041
0 27 U A 0.000035
0 27 U C 0.000392
0 27 U U -0.000277
0 27 U G -0.000012
0 27 U - -0.000018
0 27 G A 0.000864
0 27 G C -0.024161
0 27 G U -0.002147
0 27 G G 0.000012
0 27 G - -0.000013
0 27 - A -0.000013
0 27 - C 0.000893
0 27 - U 0.000049
0 27 - G 0.000009
0 27 - - 0.000013
0 28 A A -0.000842
0 28 A C 0.000483
0 28 A U -0.001547
0 28 A G -0.000214
0 28 A - 0.000268
0 28 C A -0.000011
0 28 C C 0.000001
0 28 C U -0.000040
0 28 C G 0.000030
0 28 C - 0.000924
0 28 U A -0.000102
0 28 U C -0.000047
0 28 U U 0.000605
0 28 U G -0.016021
0 28 U - -0.000048
0 28 G A 0.000292
0 28 G C -0.000187
0 28 G U -0.000057
0 28 G G -0.000611
0 28 G - 0.001004
0 28 - A 0.000856
0 28 - C 0.000008
0 28 - U 0.000049
0 28 - G 0.000008
0 28 - - -0.000013
0 29 A A -0.008744
0 29 A C -0.000066
0 29 A U -0.000046
0 29 A G -0.000560
0 29 A - 0.000026
0 29 C A -0.000029
0 29 C C 0.000019
0 29 C U -0.000044
0 29 C G 0.000958
0 29 C - 0.000020
0 29 U A -0.000529
0 29 U C 0.001184
0 29 U U 0.000007
0 29 U G -0.000162
0 29 U - 0.000549
0 29 G A 0.007291
0 29 G C -0.000022
0 29 G U -0.001825
0 29 G G -0.034361
0 29 G - 0.000438
0 29 - A 0.000819
0 29 - C 0.000039
0 29 - U -0.000015
0 29 - G -0.000006
0 29 - - -0.000038
0 30 A A -0.001654
0 30 A C -0.000022
0 30 A U -0.000247
0 30 A G -0.000592
0 30 A - 0.000352
0 30 C A -0.000029
0 30 C C -0.000037
0 30 C U 0.000032
0 30 C G 0.000925
0 30 C - 0.000009
0 30 U A -0.000901
0 30 U C 0.001122
0 30 U U 0.000420
0 30 U G 0.000953
0 30 U - 0.000018
0 30 G A 0.001284
0 30 G C -0.000513
0 30 G U -0.000320
0 30 G G -0.000433
0 30 G - 0.001328
0 30 - A 0.000033
0 30 - C 0.000019
0 30 - U 0.000048
0 30 - G 0.000848
0 30 - - -0.000016
0 31 A A -0.001204
0 31 A C 0.000361
0 31 A U 0.000466
0 31 A G -0.001311
0 31 A - 0.000027
0 31 C A -0.000021
0 31 C C 0.000017
0 31 C U 0.000033
0 31 C G 0.000894
0 31 C - -0.000019
0 31 U A -0.000340
0 31 U C 0.000746
0 31 U U 0.000019
0 31 U G 0.001028
0 31 U - 0.000017
0 31 G A 0.001532
0 31 G C -0.000036
0 31 G U -0.090150
0 31 G G 0.001556
0 31 G - 0.000727
0 31 - A 0.000838
0 31 - C -0.000028
0 31 - U 0.000041
0 31 - G 0.000017
0 31 - - 0.000017
0 32 A A -0.000981
0 32 A C -0.000071
0 32 A U 0.000334
0 32 A G -0.001204
0 32 A - 0.000142
0 32 C A -0.000027
0 32 C C 0.000020
0 32 C U 0.000048
0 32 C G 0.000935
0 32 C - -0.000019
0 32 U A 0.001172
0 32 U C 0.000432
0 32 U U 0.000023
0 32 U G -0.000697
0 32 U - 0.000031
0 32 G A 0.000995
0 32 G C -0.000015
0 32 G U -0.000021
0 32 G G -0.010934
0 32 G - 0.001034
0 32 - A 0.000029
0 32 - C -0.000015
0 32 - U 0.000866
0 32 - G 0.000031
0 32 - - -0.000013
0 33 A A -0.047770
0 33 A C 0.000044
0 33 A U -0.000038
0 33 A G 0.000015
0 33 A - 0.000021
0 33 C A 0.001422
0 33 C C -0.000042
0 33 C U -0.000037
0 33 C G 0.000017
0 33 C - -0.000042
0 33 U A -0.000222
0 33 U C -0.000025
0 33 U U -0.000010
0 33 U G 0.000021
0 33 U - -0.000013
0 33 G A 0.000060
0 33 G C -0.000044
0 33 G U 0.000685
0 33 G G -0.000023
0 33 G - 0.000007
0 33 - A 0.025755
0 33 - C 0.000049
0 33 - U 0.000032
0 33 - G 0.000051
0 33 - - 0.000046
0 34 A A 0.000001
0 34 A C -0.000294
0 34 A U -0.007651
0 34 A G -0.000046
0 34 A - 0.000024
0 34 C A -0.000039
0 34 C C 0.000977
0 34 C U -0.000006
0 34 C G -0.000023
0 34 C - -0.000035
0 34 U A -0.000035
0 34 U C 0.000229
0 34 U U 0.000028
0 34 U G 0.000007
0 34 U - 0.000029
0 34 G A -0.000004
0 34 G C -0.003037
0 34 G U 0.000056
0 34 G G -0.000046
0 34 G - 0.000001
0 34 - A -0.000045
0 34 - C 0.000877
0 34 - U 0.000045
0 34 - G 0.000012
0 34 - - 0.000025
0 35 A A 0.000464
0 35 A C 0.000052
0 35 A U 0.000187
0 35 A G -0.178075
0 35 A - 0.000041
0 35 C A -0.000026
0 35 C C -0.000019
0 35 C U 0.000043
0 35 C G 0.004573
0 35 C - 0.000019
0 35 U A 0.000046
0 35 U C -0.000021
0 35 U U -0.000020
0 35 U G 0.000065
0 35 U - 0.000588
0 35 G A -0.094612
0 35 G C 0.000041
0 35 G U -0.000023
0 35 G G 0.004755
0 35 G - 0.000045
0 35 - A -0.000026
0 35 - C -0.000036
0 35 - U -0.000037
0 35 - G 0.052229
0 35 - - -0.000015
0 36 A A -0.000043
0 36 A C -0.000045
0 36 A U -0.000021
0 36 A G -0.007289
0 36 A - -0.000033
0 36 C A 0.000043
0 36 C C 0.000047
0 36 C U 0.000043
0 36 C G 0.000931
0 36 C - -0.000032
0 36 U A 0.000024
0 36 U C -0.000042
0 36 U U -0.000035
0 36 U G -0.002618
0 36 U - 0.000011
0 36 G A 0.000035
0 36 G C -0.000015
0 36 G U 0.000030
0 36 G G -0.003707
0 36 G - 0.000004
0 36 - A -0.000036
0 36 - C 0.000047
0 36 - U -0.000040
0 36 - G 0.009560
0 36 - - -0.000039
0 37 A A -0.000199
0 37 A C -0.000007
0 37 A U 0.000050
0 37 A G -0.004959
0 37 A - -0.000036
0 37 C A 0.000948
0 37 C C -0.000046
0 37 C U 0.000037
0 37 C G -0.000042
0 37 C - -0.000001
0 37 U A -0.000673
0 37 U C 0.000042
0 37 U U -0.000008
0 37 U G 0.002096
0 37 U - 0.000039
0 37 G A -0.000035
0 37 G C -0.000001
0 37 G U 0.000016
0 37 G G -0.047538
0 37 G - 0.000049
0 37 - A -0.000048
0 37 - C 0.000019
0 37 - U 0.000019
0 37 - G 0.002345
0 37 - - -0.000001
0 38 A A -0.006112
0 38 A C 0.000028
0 38 A U 0.000050
0 38 A G 0.001061
0 38 A - -0.000009
0 38 C A 0.003757
0 38 C C 0.000059
0 38 C U 0.000002
0 38 C G 0.000010
0 38 C - -0.000001
0 38 U A -0.014712
0 38 U C -0.000009
0 38 U U 0.000009
0 38 U G 0.000798
0 38 U - -0.000014
0 38 G A 0.006135
0 38 G C 0.000058
0 38 G U 0.000495
0 38 G G -0.274764
0 38 G - 0.000783
0 38 - A -0.000003
0 38 - C -0.000001
0 38 - U 0.000029
0 38 - G 0.000877
0 38 - - -0.000017
0 39 A A -0.000546
0 39 A C 0.000074
0 39 A U -0.000740
0 39 A G 0.000023
0 39 A - -0.000017
0 39 C A 0.000966
0 39 C C 0.000019
0 39 C U 0.000043
0 39 C G 0.000016
0 39 C - -0.000013
0 39 U A -0.000025
0 39 U C 0.000051
0 39 U U -0.286394
0 39 U G 0.000034
0 39 U - -0.000019
0 39 G A -0.336520
0 39 G C 0.000017
0 39 G U 0.310165
0 39 G G -0.000012
0 39 G - 0.000056
0 39 - A 0.001946
0 39 - C 0.000058
0 39 - U 0.000016
0 39 - G -0.000011
0 39 - - -0.000026
0 40 A A 0.000038
0 40 A C 0.000106
0 40 A U -0.000026
0 40 A G -0.037306
0 40 A - 0.000034
0 40 C A -0.000025
0 40 C C 0.000042
0 40 C U 0.000027
0 40 C G 0.002050
0 40 C - 0.000027
0 40 U A 0.000035
0 40 U C -0.000045
0 40 U U 0.000008
0 40 U G 0.000361
0 40 U - -0.000009
0 40 G A 0.000039
0 40 G C -0.000009
0 40 G U 0.000020
0 40 G G -0.005229
0 40 G - 0.000007
0 40 - A 0.000002
0 40 - C 0.000043
0 40 - U 0.000012
0 40 - G 0.015412
0 40 - - 0.000044
0 41 A A 0.000042
0 41 A C 0.000027
0 41 A U -0.044039
0 41 A G -0.000027
0 41 A - 0.000197
0 41 C A -0.000027
0 41 C C -0.000010
0 41 C U 0.001815
0 41 C G -0.000026
0 41 C - -0.000027
0 41 U A -0.000018
0 41 U C 0.000008
0 41 U U 0.000367
0 41 U G 0.000008
0 41 U - 0.000006
0 41 G A -0.000048
0 41 G C 0.000776
0 41 G U -0.001319
0 41 G G -0.000018
0 41 G - 0.000019
0 41 - A -0.000023
0 41 - C -0.000012
0 41 - U 0.010207
0 41 - G -0.000034
0 41 - - -0.000027
0 42 A A 0.001151
0 42 A C -0.000063
0 42 A U -0.007842
0 42 A G 0.000011
0 42 A - 0.001445
0 42 C A -0.000046
0 42 C C -0.000009
0 42 C U -0.000026
0 42 C G -0.000020
0 42 C - 0.000977
0 42 U A 0.000049
0 42 U C 0.000622
0 42 U U 0.000418
0 42 U G -0.000007
0 42 U - -0.001811
0 42 G A 0.000451
0 42 G C 0.000007
0 42 G U -0.024929
0 42 G G -0.000036
0 42 G - -0.000064
0 42 - A 0.000041
0 42 - C 0.000039
0 42 - U 0.000896
0 42 - G 0.000033
0 42 - - 0.000033
0 43 A A 0.000032
0 43 A C -0.000034
0 43 A U 0.000029
0 43 A G -0.025269
0 43 A - -0.000044
0 43 C A 0.000031
0 43 C C 0.000028
0 43 C U 0.000047
0 43 C G 0.000890
0 43 C - -0.000031
0 43 U A 0.000009
0 43 U C -0.000038
0 43 U U 0.000050
0 43 U G 0.000218
0 43 U - -0.000020
0 43 G A 0.000005
0 43 G C -0.000013
0 43 G U -0.000040
0 43 G G -0.001626
0 43 G - 0.000040
0 43 - A -0.000008
0 43 - C 0.000031
0 43 - U -0.000020
0 43 - G 0.018139
0 43 - - 0.000007
0 44 A A 0.000534
0 44 A C -0.000971
0 44 A U -0.000503
0 44 A G 0.000252
0 44 A - 0.000509
0 44 C A 0.000908
0 44 C C 0.001131
0 44 C U -0.000041
0 44 C G 0.000042
0 44 C - -0.000040
0 44 U A -0.000370
0 44 U C 0.000286
0 44 U U -0.000032
0 44 U G 0.000094
0 44 U - 0.003022
0 44 G A -0.000013
0 44 G C -0.247493
0 44 G U 0.000154
0 44 G G -0.000002
0 44 G - 0.000779
0 44 - A -0.000012
0 44 - C 0.000933
0 44 - U 0.000002
0 44 - G 0.000031
0 44 - - 0.000032
0 45 A A 0.001445
0 45 A C -0.004253
0 45 A U -0.002942
0 45 A G -0.000026
0 45 A - -0.000025
0 45 C A 0.000046
0 45 C C 0.000955
0 45 C U 0.000035
0 45 C G -0.000005
0 45 C - -0.000031
0 45 U A 0.000804
0 45 U C 0.000026
0 45 U U 0.000088
0 45 U G -0.000014
0 45 U - 0.000009
0 45 G A -0.070451
0 45 G C 0.000074
0 45 G U 0.003940
0 45 G G -0.000540
0 45 G - -0.000003
0 45 - A -0.000038
0 45 - C 0.000027
0 45 - U -0.000007
0 45 - G 0.000001
0 45 - - 0.000843
0 46 A A -0.000707
0 46 A C -0.000604
0 46 A U -0.000442
0 46 A G 0.003257
0 46 A - 0.000008
0 46 C A 0.000033
0 46 C C -0.000035
0 46 C U 0.000907
0 46 C G -0.000034
0 46 C - -0.000041
0 46 U A 0.001159
0 46 U C 0.000154
0 46 U U -0.000176
0 46 U G 0.000553
0 46 U - 0.000011
0 46 G A 0.000759
0 46 G C -0.000247
0 46 G U 0.000700
0 46 G G -0.034998
0 46 G - 0.000882
0 46 - A 0.000035
0 46 - C -0.000037
0 46 - U -0.000032
0 46 - G 0.000883
0 46 - - 0.000007
0 47 A A -0.000037
0 47 A C -0.000219
0 47 A U -0.009754
0 47 A G -0.000104
0 47 A - -0.000044
0 47 C A 0.000049
0 47 C C 0.000949
0 47 C U -0.000053
0 47 C G -0.000039
0 47 C - -0.000009
0 47 U A 0.000005
0 47 U C 0.000118
0 47 U U -0.000976
0 47 U G 0.001257
0 47 U - 0.000533
0 47 G A -0.000227
0 47 G C -0.014479
0 47 G U 0.000808
0 47 G G 0.000008
0 47 G - 0.001026
0 47 - A -0.000007
0 47 - C -0.000034
0 47 - U 0.000850
0 47 - G 0.000002
0 47 - - -0.000044
0 48 A A -0.000628
0 48 A C -0.000184
0 48 A U -0.000335
0 48 A G -0.000016
0 48 A - 0.000000
0 48 C A 0.000902
0 48 C C 0.000024
0 48 C U 0.000001
0 48 C G -0.000042
0 48 C - 0.000015
0 48 U A 0.000845
0 48 U C -0.000126
0 48 U U -0.004665
0 48 U G 0.001322
0 48 U - 0.000039
0 48 G A 0.001263
0 48 G C -0.000433
0 48 G U -0.000591
0 48 G G -0.000480
0 48 G - 0.001639
0 48 - A 0.000026
0 48 - C 0.000016
0 48 - U 0.000812
0 48 - G -0.000048
0 48 - - 0.000009
0 49 A A 0.000428
0 49 A C -0.000059
0 49 A U -0.000014
0 49 A G -0.001229
0 49 A - -0.000014
0 49 C A 0.000969
0 49 C C 0.000041
0 49 C U -0.000015
0 49 C G -0.000027
0 49 C - 0.000045
0 49 U A 0.000177
0 49 U C 0.000322
0 49 U U 0.000038
0 49 U G -0.000074
0 49 U - -0.000041
0 49 G A -0.001548
0 49 G C 0.000047
0 49 G U 0.000028
0 49 G G -0.000286
0 49 G - 0.000904
0 49 - A -0.000043
0 49 - C -0.000006
0 49 - U 0.000007
0 49 - G 0.000821
0 49 - - 0.000000
0 50 A A -0.036329
0 50 A C -0.000016
0 50 A U 0.000044
0 50 A G 0.001557
0 50 A - -0.000038
0 50 C A -0.000022
0 50 C C -0.000020
0 50 C U 0.000031
0 50 C G 0.000925
0 50 C - -0.000015
0 50 U A 0.003579
0 50 U C 0.000049
0 50 U U -0.000037
0 50 U G -0.047849
0 50 U - -0.000029
0 50 G A -0.000959
0 50 G C 0.000023
0 50 G U 0.000705
0 50 G G 0.000180
0 50 G - -0.000019
0 50 - A 0.000019
0 50 - C -0.000008
0 50 - U -0.000009
0 50 - G 0.002033
0 50 - - -0.000004
0 51 A A -0.007667
0 51 A C -0.000022
0 51 A U -0.000037
0 51 A G -0.000038
0 51 A - 0.000505
0 51 C A 0.002244
0 51 C C 0.000021
0 51 C U 0.000044
0 51 C G 0.000026
0 51 C - -0.000050
0 51 U A 0.000451
0 51 U C 0.000032
0 51 U U 0.000037
0 51 U G -0.000041
0 51 U - 0.000016
0 51 G A -0.003903
0 51 G C -0.000036
0 51 G U -0.000016
0 51 G G 0.000064
0 51 G - 0.000668
0 51 - A 0.005463
0 51 - C 0.000015
0 51 - U -0.000044
0 51 - G 0.000047
0 51 - - 0.000000
0 52 A A -0.000007
0 52 A C -0.010566
0 52 A U -0.000026
0 52 A G -0.000024
0 52 A - 0.000020
0 52 C A 0.000040
0 52 C C 0.003031
0 52 C U -0.000039
0 52 C G 0.000020
0 52 C - -0.000035
0 52 U A 0.000015
0 52 U C -0.000025
0 52 U U 0.000018
0 52 U G -0.000032
0 52 U - 0.000522
0 52 G A -0.000047
0 52 G C -0.006161
0 52 G U 0.000011
0 52 G G 0.000013
0 52 G - 0.000008
0 52 - A 0.000046
0 52 - C 0.006736
0 52 - U -0.000000
0 52 - G -0.000037
0 52 - - -0.000050
0 53 A A 0.000016
0 53 A C 0.000044
0 53 A U -0.000036
0 53 A G -0.029357
0 53 A - 0.000034
0 53 C A 0.000005
0 53 C C 0.000025
0 53 C U -0.000029
0 53 C G 0.000930
0 53 C - 0.000049
0 53 U A 0.000022
0 53 U C 0.000012
0 53 U U -0.000039
0 53 U G 0.000337
0 53 U - -0.000032
0 53 G A -0.000032
0 53 G C -0.000020
0 53 G U -0.000002
0 53 G G -0.002415
0 53 G - 0.000049
0 53 - A -0.000011
0 53 - C -0.000011
0 53 - U -0.000011
0 53 - G 0.016100
0 53 - - 0.000005
0 54 A A -0.026320
0 54 A C 0.000006
0 54 A U -0.000017
0 54 A G 0.000041
0 54 A - -0.000015
0 54 C A 0.001779
0 54 C C -0.000006
0 54 C U -0.000015
0 54 C G -0.000015
0 54 C - -0.000006
0 54 U A 0.000616
0 54 U C -0.000012
0 54 U U -0.000048
0 54 U G -0.000056
0 54 U - 0.000041
0 54 G A -0.004178
0 54 G C -0.000027
0 54 G U 0.000019
0 54 G G 0.000023
0 54 G - -0.000015
0 54 - A 0.006874
0 54 - C -0.000034
0 54 - U -0.000015
0 54 - G 0.000017
0 54 - - -0.000035
0 55 A A -0.007378
0 55 A C 0.000607
0 55 A U -0.000021
0 55 A G 0.000031
0 55 A - -0.000039
0 55 C A 0.004283
0 55 C C 0.000030
0 55 C U 0.000031
0 55 C G -0.000050
0 55 C - 0.000001
0 55 U A 0.000415
0 55 U C -0.000018
0 55 U U 0.000031
0 55 U G 0.000031
0 55 U - 0.000003
0 55 G A -0.007528
0 55 G C -0.000029
0 55 G U 0.000045
0 55 G G -0.000020
0 55 G - -0.000032
0 55 - A 0.012190
0 55 - C 0.000046
0 55 - U 0.000030
0 55 - G 0.000031
0 55 - - 0.000034
0 56 A A -0.001046
0 56 A C -0.000034
0 56 A U -0.000061
0 56 A G -0.003489
0 56 A - 0.000029
0 56 C A 0.000912
0 56 C C -0.000035
0 56 C U 0.000051
0 56 C G -0.000036
0 56 C - -0.000001
0 56 U A -0.000221
0 56 U C 0.000026
0 56 U U -0.000035
0 56 U G 0.001351
0 56 U - -0.000006
0 56 G A -0.090839
0 56 G C 0.000831
0 56 G U -0.000041
0 56 G G 0.000703
0 56 G - 0.000755
0 56 - A -0.000026
0 56 - C 0.000008
0 56 - U -0.000008
0 56 - G 0.000839
0 56 - - -0.000044
0 57 A A -0.000821
0 57 A C -0.000035
0 57 A U -0.000051
0 57 A G -0.000529
0 57 A - 0.000030
0 57 C A -0.000005
0 57 C C 0.000010
0 57 C U 0.000037
0 57 C G 0.000950
0 57 C - -0.000000
0 57 U A 0.001570
0 57 U C -0.000015
0 57 U U -0.000040
0 57 U G -0.000357
0 57 U - 0.000016
0 57 G A -0.101559
0 57 G C 0.000036
0 57 G U 0.001735
0 57 G G 0.000516
0 57 G - -0.000025
0 57 - A 0.000024
0 57 - C -0.000044
0 57 - U 0.000051
0 57 - G 0.000903
0 57 - - 0.000012
0 58 A A -0.001176
0 58 A C -0.000068
0 58 A U -0.003438
0 58 A G 0.000049
0 58 A - -0.000112
0 58 C A 0.000943
0 58 C C -0.000047
0 58 C U -0.000037
0 58 C G -0.000019
0 58 C - -0.000007
0 58 U A 0.000414
0 58 U C 0.000752
0 58 U U 0.000045
0 58 U G -0.000004
0 58 U - -0.000049
0 58 G A -0.000606
0 58 G C 0.002888
0 58 G U -0.000979
0 58 G G -0.000154
0 58 G - 0.000872
0 58 - A 0.000017
0 58 - C 0.000048
0 58 - U 0.000032
0 58 - G 0.000857
0 58 - - -0.000014
0 59 A A -0.000785
0 59 A C 0.000016
0 59 A U -0.001515
0 59 A G 0.000307
0 59 A - 0.000143
0 59 C A 0.000950
0 59 C C 0.000011
0 59 C U -0.000046
0 59 C G -0.000040
0 59 C - 0.000041
0 59 U A -0.000053
0 59 U C 0.000001
0 59 U U 0.001623
0 59 U G -0.000029
0 59 U - -0.000024
0 59 G A 0.000433
0 59 G C -0.000078
0 59 G U -0.000003
0 59 G G -0.000052
0 59 G - -0.000380
0 59 - A 0.000020
0 59 - C -0.000037
0 59 - U 0.000883
0 59 - G -0.000017
0 59 - - -0.000046
0 60 A A -0.002186
0 60 A C 0.000004
0 60 A U -0.118783
0 60 A G -0.000056
0 60 A - 0.000157
0 60 C A -0.000037
0 60 C C 0.000005
0 60 C U -0.000045
0 60 C G 0.000925
0 60 C - 0.000020
0 60 U A 0.000059
0 60 U C -0.000003
0 60 U U 0.000739
0 60 U G 0.000038
0 60 U - 0.000611
0 60 G A -0.001117
0 60 G C 0.000710
0 60 G U 0.002077
0 60 G G -0.000009
0 60 G - -0.000499
0 60 - A -0.000028
0 60 - C 0.000013
0 60 - U 0.000054
0 60 - G 0.000916
0 60 - - -0.000037
0 61 A A -0.000519
0 61 A C -0.000013
0 61 A U -0.000279
0 61 A G 0.000410
0 61 A - -0.001024
0 61 C A -0.000044
0 61 C C -0.000001
0 61 C U -0.000024
0 61 C G 0.000043
0 61 C - 0.000963
0 61 U A -0.000052
0 61 U C 0.000009
0 61 U U 0.000009
0 61 U G 0.000626
0 61 U - 0.000391
0 61 G A 0.000168
0 61 G C 0.000531
0 61 G U 0.000045
0 61 G G 0.000796
0 61 G - -0.000661
0 61 - A 0.000045
0 61 - C -0.000006
0 61 - U 0.000031
0 61 - G 0.000049
0 61 - - 0.000804
0 62 A A 0.001965
0 62 A C -0.000692
0 62 A U -0.001389
0 62 A G -0.000005
0 62 A - -0.000003
0 62 C A -0.000009
0 62 C C 0.000940
0 62 C U -0.000018
0 62 C G 0.000019
0 62 C - -0.000008
0 62 U A 0.000043
0 62 U C -0.000703
0 62 U U 0.001198
0 62 U G 0.000383
0 62 U - -0.000034
0 62 G A 0.000257
0 62 G C -0.001478
0 62 G U -0.008678
0 62 G G 0.001379
0 62 G - 0.000040
0 62 - A 0.000047
0 62 - C -0.000021
0 62 - U 0.000884
0 62 - G 0.000009
0 62 - - 0.000013
0 63 A A 0.000267
0 63 A C -0.000442
0 63 A U -0.000718
0 63 A G 0.000024
0 63 A - -0.000052
0 63 C A 0.000026
0 63 C C -0.000044
0 63 C U 0.000931
0 63 C G -0.000011
0 63 C - 0.000017
0 63 U A -0.000008
0 63 U C -0.000128
0 63 U U -0.000688
0 63 U G 0.000031
0 63 U - 0.001553
0 63 G A -0.000012
0 63 G C 0.001002
0 63 G U -0.112720
0 63 G G 0.000040
0 63 G - 0.000018
0 63 - A -0.000045
0 63 - C 0.000032
0 63 - U -0.000028
0 63 - G 0.000019
0 63 - - 0.000836
0 64 A A 0.000445
0 64 A C 0.000046
0 64 A U 0.000034
0 64 A G -0.173029
0 64 A - 0.000008
0 64 C A -0.000005
0 64 C C -0.000033
0 64 C U 0.000041
0 64 C G 0.002964
0 64 C - 0.000026
0 64 U A 0.000020
0 64 U C 0.000526
0 64 U U 0.000003
0 64 U G 0.000224
0 64 U - -0.000002
0 64 G A -0.042020
0 64 G C 0.000046
0 64 G U 0.000411
0 64 G G 0.003223
0 64 G - 0.000018
0 64 - A 0.000012
0 64 - C -0.000035
0 64 - U 0.000025
0 64 - G 0.010532
0 64 - - -0.000025
0 65 A A -0.000028
0 65 A C -0.007990
0 65 A U 0.000139
0 65 A G 0.000000
0 65 A - 0.000034
0 65 C A 0.000041
0 65 C C 0.000921
0 65 C U -0.000039
0 65 C G -0.000023
0 65 C - 0.000039
0 65 U A -0.000050
0 65 U C 0.000412
0 65 U U -0.000017
0 65 U G 0.000022
0 65 U - -0.000001
0 65 G A 0.000038
0 65 G C -0.004438
0 65 G U 0.000030
0 65 G G 0.000023
0 65 G - -0.000047
0 65 - A -0.000050
0 65 - C 0.009613
0 65 - U 0.000010
0 65 - G 0.000805
0 65 - - 0.000000
0 66 A A 0.000594