# NB_STEPS 3000
# UP_FREQ 1000
# TEMP 1.000000
# LAMBDA 0.050000
# ID_THRES 1.000000
# ALPHA 1.000000
0 0 A A -0.002801
0 0 C C 0.000489
0 0 U U 0.000639
0 0 G G 0.000531
0 0 - - 0.000034
0 1 A A -0.000027
0 1 A C 0.000048
0 1 A U 0.000025
0 1 A G 0.000088
0 1 A - -0.322554
0 1 C A 0.000053
0 1 C C 0.000000
0 1 C U 0.000028
0 1 C G -0.000027
0 1 C - 0.001404
0 1 U A -0.000023
0 1 U C 0.000050
0 1 U U 0.000052
0 1 U G 0.000037
0 1 U - 0.000661
0 1 G A 0.000055
0 1 G C -0.000034
0 1 G U 0.000055
0 1 G G -0.000016
0 1 G - 0.003048
0 1 - A 0.000055
0 1 - C -0.000023
0 1 - U -0.000023
0 1 - G -0.000006
0 1 - - 0.000672
0 2 A A -0.000004
0 2 A C 0.000029
0 2 A U -0.000006
0 2 A G 0.000054
0 2 A - -0.287929
0 2 C A 0.000000
0 2 C C -0.000026
0 2 C U -0.000039
0 2 C G 0.000044
0 2 C - 0.002318
0 2 U A 0.000022
0 2 U C -0.000006
0 2 U U -0.000014
0 2 U G 0.000000
0 2 U - 0.000701
0 2 G A -0.000003
0 2 G C -0.000036
0 2 G U 0.000708
0 2 G G -0.000038
0 2 G - 0.001912
0 2 - A 0.000018
0 2 - C 0.000011
0 2 - U 0.000042
0 2 - G 0.000019
0 2 - - 0.000026
0 3 A A 0.000044
0 3 A C -0.007564
0 3 A U 0.001032
0 3 A G 0.000684
0 3 A - -0.000006
0 3 C A 0.000033
0 3 C C 0.000501
0 3 C U 0.000033
0 3 C G -0.000029
0 3 C - 0.000033
0 3 U A -0.000031
0 3 U C 0.000581
0 3 U U -0.000044
0 3 U G -0.000049
0 3 U - 0.000033
0 3 G A 0.000033
0 3 G C -0.000191
0 3 G U -0.000023
0 3 G G -0.000012
0 3 G - -0.000009
0 3 - A -0.000030
0 3 - C -0.000024
0 3 - U 0.000033
0 3 - G 0.000033
0 3 - - -0.000042
0 4 A A -0.000027
0 4 A C 0.000000
0 4 A U -0.003875
0 4 A G 0.000044
0 4 A - 0.000137
0 4 C A -0.000044
0 4 C C -0.000044
0 4 C U 0.000472
0 4 C G -0.000018
0 4 C - -0.000012
0 4 U A -0.000022
0 4 U C -0.000044
0 4 U U 0.000592
0 4 U G -0.000023
0 4 U - 0.000001
0 4 G A 0.000003
0 4 G C -0.000044
0 4 G U 0.000406
0 4 G G -0.000049
0 4 G - 0.000001
0 4 - A -0.000044
0 4 - C -0.000044
0 4 - U 0.000035
0 4 - G 0.000045
0 4 - - -0.000002
0 5 A A -0.000034
0 5 A C -0.000010
0 5 A U -0.006516
0 5 A G -0.000004
0 5 A - 0.000025
0 5 C A -0.000036
0 5 C C -0.000017
0 5 C U 0.000533
0 5 C G -0.000036
0 5 C - -0.000033
0 5 U A -0.000033
0 5 U C 0.000001
0 5 U U 0.000581
0 5 U G 0.000008
0 5 U - 0.000007
0 5 G A -0.000036
0 5 G C -0.000027
0 5 G U 0.000498
0 5 G G -0.000033
0 5 G - -0.000036
0 5 - A 0.000016
0 5 - C -0.000018
0 5 - U 0.000027
0 5 - G -0.000036
0 5 - - -0.000033
0 6 A A -0.001971
0 6 A C 0.000536
0 6 A U 0.000001
0 6 A G -0.072065
0 6 A - 0.000301
0 6 C A 0.000575
0 6 C C 0.000048
0 6 C U 0.000048
0 6 C G -0.000009
0 6 C - -0.000017
0 6 U A 0.000646
0 6 U C 0.000045
0 6 U U -0.000046
0 6 U G 0.000022
0 6 U - 0.000031
0 6 G A -0.012637
0 6 G C 0.000020
0 6 G U -0.000003
0 6 G G 0.000009
0 6 G - -0.000037
0 6 - A 0.000038
0 6 - C 0.000031
0 6 - U -0.000033
0 6 - G 0.000015
0 6 - - 0.000031
0 7 A A -0.000044
0 7 A C 0.000951
0 7 A U -0.005334
0 7 A G -0.000033
0 7 A - -0.000010
0 7 C A -0.000029
0 7 C C 0.000021
0 7 C U 0.000509
0 7 C G -0.000029
0 7 C - -0.000029
0 7 U A -0.000029
0 7 U C -0.000029
0 7 U U 0.000592
0 7 U G 0.000022
0 7 U - 0.000004
0 7 G A 0.000006
0 7 G C 0.000006
0 7 G U 0.000510
0 7 G G 0.000014
0 7 G - -0.000009
0 7 - A -0.000029
0 7 - C -0.000029
0 7 - U -0.000002
0 7 - G -0.000029
0 7 - - 0.000001
0 8 A A -0.002949
0 8 A C -0.000006
0 8 A U -0.000040
0 8 A G 0.000038
0 8 A - 0.000014
0 8 C A -0.000025
0 8 C C -0.000003
0 8 C U -0.000003
0 8 C G -0.000042
0 8 C - 0.000508
0 8 U A 0.000652
0 8 U C 0.000023
0 8 U U -0.000003
0 8 U G 0.000009
0 8 U - 0.000012
0 8 G A 0.000322
0 8 G C 0.000017
0 8 G U 0.000040
0 8 G G 0.000030
0 8 G - 0.000047
0 8 - A -0.000024
0 8 - C 0.000011
0 8 - U 0.000018
0 8 - G -0.000003
0 8 - - -0.000003
0 9 A A -0.000009
0 9 A C -0.056919
0 9 A U 0.000041
0 9 A G 0.002094
0 9 A - 0.000642
0 9 C A 0.000008
0 9 C C 0.000494
0 9 C U -0.000011
0 9 C G -0.000006
0 9 C - 0.000012
0 9 U A 0.000023
0 9 U C 0.000036
0 9 U U 0.000643
0 9 U G -0.000037
0 9 U - -0.000008
0 9 G A 0.001474
0 9 G C -0.000079
0 9 G U -0.000095
0 9 G G 0.000031
0 9 G - 0.000023
0 9 - A -0.000020
0 9 - C -0.000035
0 9 - U 0.000033
0 9 - G -0.000019
0 9 - - 0.000025
0 10 A A -0.007244
0 10 A C 0.000025
0 10 A U -0.000049
0 10 A G -0.000003
0 10 A - 0.000013
0 10 C A 0.000487
0 10 C C -0.000037
0 10 C U -0.000032
0 10 C G -0.000014
0 10 C - -0.000037
0 10 U A 0.000603
0 10 U C 0.000013
0 10 U U -0.000037
0 10 U G -0.000032
0 10 U - -0.000037
0 10 G A 0.000555
0 10 G C -0.000032
0 10 G U -0.000032
0 10 G G -0.000032
0 10 G - -0.000032
0 10 - A -0.000039
0 10 - C -0.000037
0 10 - U -0.000037
0 10 - G -0.000037
0 10 - - -0.000032
0 11 A A -0.174375
0 11 A C 0.000509
0 11 A U -0.001885
0 11 A G 0.001149
0 11 A - 0.000054
0 11 C A 0.000055
0 11 C C -0.000019
0 11 C U -0.000024
0 11 C G 0.000541
0 11 C - 0.000021
0 11 U A -0.000034
0 11 U C -0.000018
0 11 U U 0.000051
0 11 U G 0.000700
0 11 U - 0.000003
0 11 G A -0.000041
0 11 G C 0.000358
0 11 G U -0.000064
0 11 G G 0.000233
0 11 G - -0.000000
0 11 - A -0.000013
0 11 - C 0.000001
0 11 - U 0.000014
0 11 - G 0.000013
0 11 - - 0.000001
0 12 A A -0.062693
0 12 A C 0.001111
0 12 A U 0.001067
0 12 A G -0.011264
0 12 A - 0.001735
0 12 C A -0.000019
0 12 C C 0.000040
0 12 C U -0.000023
0 12 C G 0.000543
0 12 C - 0.000017
0 12 U A 0.000902
0 12 U C 0.000010
0 12 U U 0.000007
0 12 U G -0.000062
0 12 U - 0.000026
0 12 G A 0.000030
0 12 G C -0.000007
0 12 G U -0.038935
0 12 G G 0.002034
0 12 G - -0.000035
0 12 - A -0.000045
0 12 - C -0.000007
0 12 - U -0.000023
0 12 - G 0.000003
0 12 - - -0.000042
0 13 A A -0.000035
0 13 A C -0.000061
0 13 A U -0.001321
0 13 A G -0.000229
0 13 A - 0.000050
0 13 C A 0.000007
0 13 C C -0.000000
0 13 C U 0.000046
0 13 C G 0.000501
0 13 C - -0.000016
0 13 U A -0.000003
0 13 U C 0.000026
0 13 U U -0.000024
0 13 U G 0.000539
0 13 U - 0.000048
0 13 G A 0.000402
0 13 G C 0.000048
0 13 G U -0.000062
0 13 G G 0.000490
0 13 G - 0.000044
0 13 - A -0.000020
0 13 - C -0.000017
0 13 - U -0.000050
0 13 - G -0.000045
0 13 - - -0.000006
0 14 A A 0.000985
0 14 A C -0.002354
0 14 A U -0.003567
0 14 A G -0.000010
0 14 A - 0.000003
0 14 C A 0.000046
0 14 C C -0.000024
0 14 C U 0.000514
0 14 C G 0.000031
0 14 C - -0.000046
0 14 U A -0.000047
0 14 U C -0.000000
0 14 U U 0.000660
0 14 U G -0.000047
0 14 U - -0.000047
0 14 G A 0.000028
0 14 G C -0.000080
0 14 G U 0.000162
0 14 G G 0.000414
0 14 G - 0.000047
0 14 - A -0.000049
0 14 - C -0.000043
0 14 - U -0.000010
0 14 - G -0.000050
0 14 - - -0.000043
0 15 A A -0.004514
0 15 A C -0.000028
0 15 A U -0.000032
0 15 A G -0.000001
0 15 A - 0.000950
0 15 C A 0.000469
0 15 C C 0.000017
0 15 C U -0.000042
0 15 C G -0.000049
0 15 C - 0.000011
0 15 U A 0.000670
0 15 U C 0.000011
0 15 U U 0.000011
0 15 U G 0.000011
0 15 U - -0.000040
0 15 G A 0.000466
0 15 G C -0.000024
0 15 G U -0.000029
0 15 G G -0.000049
0 15 G - -0.000046
0 15 - A 0.000005
0 15 - C 0.000011
0 15 - U -0.000043
0 15 - G 0.000011
0 15 - - 0.000011
0 16 A A -0.002288
0 16 A C 0.000772
0 16 A U -0.000048
0 16 A G -0.004789
0 16 A - 0.000002
0 16 C A 0.000013
0 16 C C 0.000006
0 16 C U 0.000006
0 16 C G 0.000492
0 16 C - -0.000044
0 16 U A 0.000596
0 16 U C -0.000044
0 16 U U 0.000006
0 16 U G -0.000049
0 16 U - 0.000006
0 16 G A -0.000056
0 16 G C 0.000006
0 16 G U 0.000044
0 16 G G 0.000471
0 16 G - -0.000014
0 16 - A -0.000037
0 16 - C -0.000030
0 16 - U 0.000006
0 16 - G 0.000022
0 16 - - 0.000024
0 17 A A 0.000003
0 17 A C -0.005576
0 17 A U -0.000039
0 17 A G -0.000046
0 17 A - 0.000004
0 17 C A -0.000043
0 17 C C 0.000492
0 17 C U -0.000037
0 17 C G -0.000043
0 17 C - -0.000043
0 17 U A -0.000037
0 17 U C 0.000611
0 17 U U -0.000043
0 17 U G -0.000039
0 17 U - -0.000043
0 17 G A -0.000043
0 17 G C -0.000263
0 17 G U -0.000037
0 17 G G -0.000018
0 17 G - 0.000609
0 17 - A -0.000043
0 17 - C 0.000024
0 17 - U -0.000043
0 17 - G -0.000043
0 17 - - -0.000037
0 18 A A -0.007875
0 18 A C -0.000016
0 18 A U 0.000350
0 18 A G -0.000022
0 18 A - -0.000028
0 18 C A 0.000492
0 18 C C -0.000018
0 18 C U -0.000018
0 18 C G -0.000018
0 18 C - -0.000018
0 18 U A 0.000583
0 18 U C -0.000018
0 18 U U 0.000025
0 18 U G 0.000019
0 18 U - -0.000018
0 18 G A 0.000442
0 18 G C -0.000024
0 18 G U 0.000029
0 18 G G 0.000023
0 18 G - -0.000018
0 18 - A 0.000008
0 18 - C -0.000018
0 18 - U 0.000036
0 18 - G 0.000006
0 18 - - -0.000018
0 19 A A 0.000032
0 19 A C 0.000037
0 19 A U -0.401206
0 19 A G -0.000016
0 19 A - 0.000033
0 19 C A 0.000022
0 19 C C -0.000032
0 19 C U 0.002565
0 19 C G 0.000014
0 19 C - 0.000044
0 19 U A -0.000067
0 19 U C 0.000022
0 19 U U 0.002082
0 19 U G 0.000043
0 19 U - -0.000007
0 19 G A 0.000039
0 19 G C 0.000055
0 19 G U 0.000890
0 19 G G 0.000029
0 19 G - 0.000031
0 19 - A 0.000043
0 19 - C 0.000037
0 19 - U 0.002903
0 19 - G -0.000013
0 19 - - 0.000063
0 20 A A -0.007918
0 20 A C -0.000005
0 20 A U 0.000003
0 20 A G 0.000996
0 20 A - 0.000017
0 20 C A 0.000476
0 20 C C -0.000036
0 20 C U -0.000036
0 20 C G -0.000036
0 20 C - -0.000036
0 20 U A 0.000600
0 20 U C 0.000011
0 20 U U -0.000013
0 20 U G 0.000012
0 20 U - -0.000036
0 20 G A 0.000269
0 20 G C 0.000003
0 20 G U -0.000036
0 20 G G -0.000004
0 20 G - 0.000033
0 20 - A 0.000006
0 20 - C -0.000036
0 20 - U 0.000015
0 20 - G -0.000036
0 20 - - -0.000011
0 21 A A 0.000525
0 21 A C 0.000266
0 21 A U -0.193085
0 21 A G -0.000018
0 21 A - 0.000016
0 21 C A 0.000625
0 21 C C -0.000039
0 21 C U 0.000012
0 21 C G 0.000057
0 21 C - -0.000021
0 21 U A 0.000695
0 21 U C -0.000023
0 21 U U -0.000012
0 21 U G -0.000025
0 21 U - -0.000040
0 21 G A -0.016663
0 21 G C -0.000032
0 21 G U 0.000006
0 21 G G 0.000051
0 21 G - 0.000032
0 21 - A 0.000018
0 21 - C -0.000021
0 21 - U -0.000023
0 21 - G -0.000022
0 21 - - -0.000023
0 22 A A -0.001257
0 22 A C -0.004635
0 22 A U -0.007514
0 22 A G 0.001545
0 22 A - 0.000116
0 22 C A 0.000002
0 22 C C 0.000015
0 22 C U 0.000504
0 22 C G 0.000014
0 22 C - -0.000015
0 22 U A 0.000008
0 22 U C -0.000002
0 22 U U 0.000564
0 22 U G -0.000002
0 22 U - -0.000016
0 22 G A -0.000063
0 22 G C -0.000048
0 22 G U 0.001567
0 22 G G 0.000016
0 22 G - 0.000029
0 22 - A 0.000028
0 22 - C 0.000036
0 22 - U 0.000011
0 22 - G 0.000003
0 22 - - -0.000030
0 23 A A -0.000049
0 23 A C 0.000044
0 23 A U 0.000008
0 23 A G -0.004235
0 23 A - -0.000025
0 23 C A -0.000009
0 23 C C -0.000009
0 23 C U -0.000002
0 23 C G 0.000477
0 23 C - -0.000009
0 23 U A -0.000009
0 23 U C -0.000009
0 23 U U -0.000005
0 23 U G 0.000648
0 23 U - -0.000009
0 23 G A 0.000049
0 23 G C 0.000005
0 23 G U -0.000009
0 23 G G 0.000468
0 23 G - 0.000012
0 23 - A -0.000009
0 23 - C -0.000009
0 23 - U -0.000005
0 23 - G -0.000032
0 23 - - -0.000009
0 24 A A -0.000013
0 24 A C -0.000013
0 24 A U 0.000536
0 24 A G -0.006990
0 24 A - 0.000007
0 24 C A 0.000020
0 24 C C 0.000020
0 24 C U 0.000020
0 24 C G 0.000491
0 24 C - 0.000020
0 24 U A 0.000020
0 24 U C 0.000020
0 24 U U -0.000015
0 24 U G 0.000583
0 24 U - -0.000048
0 24 G A 0.000035
0 24 G C -0.000030
0 24 G U -0.000033
0 24 G G 0.000499
0 24 G - -0.000030
0 24 - A 0.000020
0 24 - C -0.000038
0 24 - U 0.000023
0 24 - G 0.000007
0 24 - - -0.000033
0 25 A A 0.000691
0 25 A C 0.000046
0 25 A U 0.000040
0 25 A G -0.004710
0 25 A - 0.000032
0 25 C A 0.000028
0 25 C C 0.000044
0 25 C U -0.000049
0 25 C G 0.000491
0 25 C - 0.000028
0 25 U A -0.000006
0 25 U C -0.000049
0 25 U U -0.000029
0 25 U G 0.000648
0 25 U - 0.000049
0 25 G A -0.000034
0 25 G C -0.000034
0 25 G U -0.000038
0 25 G G 0.000000
0 25 G - 0.000049
0 25 - A 0.000047
0 25 - C 0.000028
0 25 - U 0.000049
0 25 - G 0.000007
0 25 - - 0.000028
0 26 A A -0.000034
0 26 A C -0.003572
0 26 A U -0.002155
0 26 A G 0.000019
0 26 A - 0.000005
0 26 C A 0.000005
0 26 C C 0.000551
0 26 C U -0.000035
0 26 C G 0.000030
0 26 C - -0.000046
0 26 U A -0.000001
0 26 U C 0.000004
0 26 U U 0.000598
0 26 U G 0.000005
0 26 U - 0.000030
0 26 G A -0.000045
0 26 G C 0.001549
0 26 G U -0.000115
0 26 G G 0.000002
0 26 G - -0.000033
0 26 - A 0.000005
0 26 - C -0.000012
0 26 - U 0.000006
0 26 - G 0.000030
0 26 - - -0.000001
0 27 A A -0.000028
0 27 A C 0.000045
0 27 A U -0.004670
0 27 A G 0.000040
0 27 A - -0.000012
0 27 C A -0.000042
0 27 C C -0.000042
0 27 C U 0.000522
0 27 C G -0.000041
0 27 C - -0.000042
0 27 U A -0.000034
0 27 U C -0.000036
0 27 U U 0.000602
0 27 U G -0.000041
0 27 U - -0.000014
0 27 G A -0.000035
0 27 G C 0.000049
0 27 G U 0.000488
0 27 G G -0.000036
0 27 G - -0.000042
0 27 - A -0.000037
0 27 - C -0.000042
0 27 - U 0.000033
0 27 - G -0.000036
0 27 - - -0.000042
0 28 A A -0.002808
0 28 A C 0.000047
0 28 A U 0.000034
0 28 A G -0.014020
0 28 A - -0.000049
0 28 C A 0.000547
0 28 C C -0.000005
0 28 C U -0.000003
0 28 C G -0.000025
0 28 C - -0.000006
0 28 U A 0.000656
0 28 U C -0.000023
0 28 U U 0.000027
0 28 U G 0.000005
0 28 U - -0.000023
0 28 G A 0.001423
0 28 G C 0.000032
0 28 G U 0.000019
0 28 G G -0.000047
0 28 G - -0.000005
0 28 - A -0.000021
0 28 - C 0.000042
0 28 - U -0.000006
0 28 - G -0.000032
0 28 - - 0.000008
0 29 A A -0.001516
0 29 A C 0.001084
0 29 A U -0.002055
0 29 A G -0.000247
0 29 A - 0.003391
0 29 C A 0.000032
0 29 C C 0.000486
0 29 C U -0.000050
0 29 C G 0.000009
0 29 C - -0.000011
0 29 U A -0.000026
0 29 U C 0.000539
0 29 U U -0.000035
0 29 U G 0.000006
0 29 U - -0.000007
0 29 G A -0.000605
0 29 G C 0.001165
0 29 G U 0.000422
0 29 G G -0.000023
0 29 G - -0.000018
0 29 - A -0.000000
0 29 - C 0.000019
0 29 - U -0.000007
0 29 - G 0.000040
0 29 - - 0.000042
0 30 A A 0.001008
0 30 A C -0.000950
0 30 A U -0.083684
0 30 A G 0.002264
0 30 A - -0.000026
0 30 C A -0.000004
0 30 C C 0.000002
0 30 C U 0.000596
0 30 C G -0.000024
0 30 C - 0.000041
0 30 U A -0.000022
0 30 U C 0.000049
0 30 U U 0.000684
0 30 U G 0.000031
0 30 U - -0.000040
0 30 G A -0.000075
0 30 G C 0.000446
0 30 G U 0.001234
0 30 G G 0.000048
0 30 G - -0.000035
0 30 - A -0.000022
0 30 - C -0.000031
0 30 - U 0.000016
0 30 - G -0.000022
0 30 - - 0.000042
0 31 A A 0.000009
0 31 A C 0.000005
0 31 A U 0.000012
0 31 A G -0.007970
0 31 A - -0.000039
0 31 C A -0.000029
0 31 C C -0.000009
0 31 C U -0.000029
0 31 C G 0.000560
0 31 C - -0.000029
0 31 U A -0.000029
0 31 U C -0.000029
0 31 U U -0.000029
0 31 U G 0.000585
0 31 U - 0.000015
0 31 G A 0.000015
0 31 G C -0.000004
0 31 G U -0.000028
0 31 G G 0.000557
0 31 G - 0.000040
0 31 - A -0.000029
0 31 - C 0.000009
0 31 - U 0.000015
0 31 - G -0.000035
0 31 - - -0.000006
0 32 A A -0.001069
0 32 A C 0.000584
0 32 A U -0.010900
0 32 A G -0.000006
0 32 A - -0.000033
0 32 C A 0.000468
0 32 C C -0.000033
0 32 C U -0.000023
0 32 C G 0.000010
0 32 C - 0.000026
0 32 U A 0.000561
0 32 U C 0.000010
0 32 U U -0.000028
0 32 U G -0.000033
0 32 U - -0.000040
0 32 G A 0.001534
0 32 G C -0.000014
0 32 G U -0.000139
0 32 G G 0.000009
0 32 G - 0.000010
0 32 - A -0.000027
0 32 - C -0.000013
0 32 - U 0.000030
0 32 - G -0.000001
0 32 - - -0.000040
0 33 A A -0.000074
0 33 A C 0.000544
0 33 A U -0.000345
0 33 A G 0.005512
0 33 A - -0.062000
0 33 C A 0.000020
0 33 C C -0.000036
0 33 C U -0.000040
0 33 C G 0.000002
0 33 C - 0.000569
0 33 U A 0.000043
0 33 U C 0.000616
0 33 U U -0.000046
0 33 U G 0.000050
0 33 U - -0.000010
0 33 G A 0.000276
0 33 G C 0.000133
0 33 G U -0.000050
0 33 G G 0.000010
0 33 G - 0.000872
0 33 - A 0.000021
0 33 - C 0.000025
0 33 - U -0.000012
0 33 - G 0.000006
0 33 - - 0.000038
0 34 A A -0.001936
0 34 A C -0.002837
0 34 A U -0.001009
0 34 A G 0.001099
0 34 A - 0.000009
0 34 C A 0.000512
0 34 C C 0.000009
0 34 C U 0.000038
0 34 C G 0.000005
0 34 C - 0.000039
0 34 U A 0.000025
0 34 U C 0.000838
0 34 U U -0.000059
0 34 U G -0.000029
0 34 U - -0.000009
0 34 G A -0.000006
0 34 G C 0.001412
0 34 G U -0.000035
0 34 G G -0.000026
0 34 G - -0.000021
0 34 - A -0.000041
0 34 - C 0.000049
0 34 - U -0.000031
0 34 - G -0.000001
0 34 - - -0.000002
0 35 A A 0.000020
0 35 A C -0.004999
0 35 A U 0.000026
0 35 A G -0.000006
0 35 A - 0.000019
0 35 C A 0.000028
0 35 C C 0.000492
0 35 C U -0.000048
0 35 C G 0.000028
0 35 C - 0.000028
0 35 U A -0.000036
0 35 U C 0.000607
0 35 U U -0.000048
0 35 U G 0.000028
0 35 U - -0.000049
0 35 G A -0.000031
0 35 G C 0.000386
0 35 G U -0.000014
0 35 G G -0.000037
0 35 G - 0.000014
0 35 - A -0.000032
0 35 - C -0.000017
0 35 - U 0.000028
0 35 - G 0.000039
0 35 - - -0.000048
0 36 A A -0.000042
0 36 A C -0.000003
0 36 A U -0.075857
0 36 A G 0.000045
0 36 A - 0.000042
0 36 C A 0.000009
0 36 C C 0.000539
0 36 C U 0.000018
0 36 C G -0.000018
0 36 C - -0.000019
0 36 U A -0.000034
0 36 U C 0.000655
0 36 U U 0.000021
0 36 U G 0.000050
0 36 U - -0.000034
0 36 G A 0.000032
0 36 G C 0.000614
0 36 G U -0.000048
0 36 G G 0.000012
0 36 G - 0.000015
0 36 - A -0.000033
0 36 - C 0.000031
0 36 - U -0.000018
0 36 - G 0.000050
0 36 - - 0.000002
0 37 A A 0.000172
0 37 A C -0.000037
0 37 A U -0.000022
0 37 A G -0.149588
0 37 A - 0.000161
0 37 C A -0.000023
0 37 C C -0.000008
0 37 C U 0.000008
0 37 C G 0.000624
0 37 C - 0.000008
0 37 U A -0.000076
0 37 U C -0.000010
0 37 U U -0.000010
0 37 U G 0.000880
0 37 U - 0.000036
0 37 G A -0.000031
0 37 G C 0.000026
0 37 G U -0.000014
0 37 G G 0.002313
0 37 G - 0.000011
0 37 - A 0.000042
0 37 - C -0.000012
0 37 - U 0.000027
0 37 - G -0.000016
0 37 - - 0.000007
0 38 A A 0.000029
0 38 A C -0.004401
0 38 A U 0.000006
0 38 A G 0.000031
0 38 A - -0.000045
0 38 C A -0.000031
0 38 C C 0.000481
0 38 C U -0.000031
0 38 C G 0.000009
0 38 C - -0.000031
0 38 U A -0.000031
0 38 U C 0.000663
0 38 U U -0.000043
0 38 U G 0.000019
0 38 U - 0.000002
0 38 G A 0.000001
0 38 G C 0.000488
0 38 G U -0.000029
0 38 G G 0.000019
0 38 G - -0.000026
0 38 - A -0.000031
0 38 - C -0.000006
0 38 - U -0.000031
0 38 - G -0.000031
0 38 - - -0.000031
0 39 A A 0.000827
0 39 A C -0.052867
0 39 A U -0.000095
0 39 A G 0.001595
0 39 A - 0.000043
0 39 C A 0.000002
0 39 C C 0.000509
0 39 C U -0.000003
0 39 C G 0.000031
0 39 C - -0.000019
0 39 U A -0.000032
0 39 U C 0.000646
0 39 U U 0.000041
0 39 U G -0.000036
0 39 U - -0.000005
0 39 G A -0.000098
0 39 G C 0.001584
0 39 G U 0.000010
0 39 G G -0.000010
0 39 G - -0.000032
0 39 - A 0.000028
0 39 - C -0.000005
0 39 - U 0.000031
0 39 - G 0.000016
0 39 - - 0.000013
0 40 A A -0.003112
0 40 A C -0.000400
0 40 A U -0.013217
0 40 A G 0.000007
0 40 A - 0.003737
0 40 C A -0.000041
0 40 C C 0.000512
0 40 C U 0.000007
0 40 C G 0.000040
0 40 C - 0.000030
0 40 U A 0.000027
0 40 U C -0.000604
0 40 U U -0.000008
0 40 U G 0.000004
0 40 U - 0.000010
0 40 G A 0.000811
0 40 G C -0.000004
0 40 G U 0.000394
0 40 G G -0.000315
0 40 G - 0.000047
0 40 - A 0.000048
0 40 - C -0.000034
0 40 - U -0.000044
0 40 - G 0.000037
0 40 - - 0.000008
0 41 A A 0.000034
0 41 A C -0.007331
0 41 A U 0.000102
0 41 A G -0.000042
0 41 A - 0.000670
0 41 C A -0.000046
0 41 C C 0.000532
0 41 C U 0.000027
0 41 C G -0.000045
0 41 C - -0.000020
0 41 U A 0.000038
0 41 U C 0.000501
0 41 U U 0.000033
0 41 U G -0.000045
0 41 U - -0.000009
0 41 G A 0.000470
0 41 G C 0.001793
0 41 G U -0.031691
0 41 G G 0.000018
0 41 G - -0.000022
0 41 - A 0.000050
0 41 - C 0.000038
0 41 - U 0.000050
0 41 - G -0.000015
0 41 - - -0.000025
0 42 A A -0.004915
0 42 A C 0.514714
0 42 A U 0.003159
0 42 A G -0.002972
0 42 A - 0.100683
0 42 C A 0.000032
0 42 C C 0.000060
0 42 C U 0.000036
0 42 C G 0.000688
0 42 C - 0.000043
0 42 U A 0.000056
0 42 U C 0.000021
0 42 U U 0.000686
0 42 U G 0.000059
0 42 U - -0.000002
0 42 G A 0.001218
0 42 G C -0.899897
0 42 G U -0.000012
0 42 G G 0.001080
0 42 G - 0.000046
0 42 - A 0.000049
0 42 - C -0.000028
0 42 - U 0.000005
0 42 - G 0.000033
0 42 - - 0.000050
0 43 A A 0.016987
0 43 A C 0.001334
0 43 A U -0.002140
0 43 A G -0.222639
0 43 A - 0.000305
0 43 C A 0.000567
0 43 C C -0.000019
0 43 C U 0.000041
0 43 C G 0.000023
0 43 C - -0.000001
0 43 U A -0.000016
0 43 U C -0.000019
0 43 U U -0.000039
0 43 U G 0.000860
0 43 U - 0.000056
0 43 G A -0.015909
0 43 G C 0.000029
0 43 G U 0.000030
0 43 G G 0.001884
0 43 G - -0.000026
0 43 - A 0.000016
0 43 - C 0.000019
0 43 - U 0.000048
0 43 - G -0.000034
0 43 - - -0.000002
0 44 A A 0.037493
0 44 A C -0.001133
0 44 A U -0.000003
0 44 A G -0.104029
0 44 A - 0.002961
0 44 C A 0.000510
0 44 C C 0.000037
0 44 C U -0.000001
0 44 C G -0.000003
0 44 C - -0.000018
0 44 U A -0.000095
0 44 U C -0.000013
0 44 U U -0.000031
0 44 U G 0.000844
0 44 U - -0.000003
0 44 G A -0.045300
0 44 G C 0.000362
0 44 G U 0.000037
0 44 G G 0.002507
0 44 G - -0.000015
0 44 - A 0.000035
0 44 - C -0.000033
0 44 - U 0.000004
0 44 - G 0.000011
0 44 - - -0.000032
0 45 A A -0.354562
0 45 A C 0.000801
0 45 A U 0.000042
0 45 A G 0.000012
0 45 A - -0.000003
0 45 C A 0.001997
0 45 C C 0.000003
0 45 C U 0.000049
0 45 C G -0.000018
0 45 C - -0.000029
0 45 U A 0.001970
0 45 U C -0.000064
0 45 U U 0.000037
0 45 U G 0.000046
0 45 U - 0.000022
0 45 G A -0.000144
0 45 G C -0.000024
0 45 G U 0.000572
0 45 G G 0.000022
0 45 G - 0.000012
0 45 - A 0.000586
0 45 - C -0.000000
0 45 - U 0.000028
0 45 - G 0.000052
0 45 - - 0.000031
0 46 A A 0.000447
0 46 A C -0.006906
0 46 A U -0.000009
0 46 A G 0.000323
0 46 A - 0.000033
0 46 C A -0.000038
0 46 C C 0.000463
0 46 C U -0.000009
0 46 C G -0.000014
0 46 C - -0.000036
0 46 U A -0.000038
0 46 U C 0.000604
0 46 U U 0.000005
0 46 U G -0.000006
0 46 U - -0.000023
0 46 G A -0.000006
0 46 G C 0.000468
0 46 G U 0.000012
0 46 G G -0.000016
0 46 G - 0.000001
0 46 - A -0.000020
0 46 - C -0.000042
0 46 - U -0.000038
0 46 - G -0.000038
0 46 - - 0.000010
0 47 A A 0.000919
0 47 A C -0.357161
0 47 A U 0.000045
0 47 A G 0.000058
0 47 A - 0.000018
0 47 C A 0.000036
0 47 C C 0.001314
0 47 C U 0.000044
0 47 C G -0.000025
0 47 C - 0.000036
0 47 U A 0.000019
0 47 U C 0.001040
0 47 U U 0.000902
0 47 U G -0.000072
0 47 U - -0.000025
0 47 G A 0.000042
0 47 G C -0.000148
0 47 G U 0.000765
0 47 G G 0.000081
0 47 G - 0.000020
0 47 - A -0.000001
0 47 - C 0.001004
0 47 - U -0.000035
0 47 - G 0.000020
0 47 - - 0.000038
0 48 A A -0.000190
0 48 A C -0.000174
0 48 A U -0.009283
0 48 A G -0.004011
0 48 A - 0.005152
0 48 C A 0.000532
0 48 C C 0.000012
0 48 C U -0.000022
0 48 C G 0.000038
0 48 C - 0.000010
0 48 U A -0.000400
0 48 U C -0.000002
0 48 U U 0.000811
0 48 U G -0.000028
0 48 U - -0.000037
0 48 G A -0.000016
0 48 G C 0.000025
0 48 G U 0.000356
0 48 G G 0.000248
0 48 G - -0.000018
0 48 - A -0.000040
0 48 - C -0.000043
0 48 - U 0.000005
0 48 - G -0.000034
0 48 - - 0.000009
0 49 A A -0.004934
0 49 A C 0.000042
0 49 A U 0.000008
0 49 A G 0.000020
0 49 A - 0.000005
0 49 C A 0.000465
0 49 C C 0.000001
0 49 C U -0.000016
0 49 C G 0.000013
0 49 C - -0.000016
0 49 U A 0.000607
0 49 U C -0.000016
0 49 U U -0.000016
0 49 U G 0.000021
0 49 U - -0.000016
0 49 G A -0.000223
0 49 G C 0.000028
0 49 G U 0.000397
0 49 G G 0.000028
0 49 G - 0.000028
0 49 - A -0.000039
0 49 - C 0.000021
0 49 - U -0.000016
0 49 - G -0.000016
0 49 - - -0.000016
0 50 A A 0.000029
0 50 A C -0.000010
0 50 A U -0.392172
0 50 A G 0.000383
0 50 A - 0.000017
0 50 C A -0.000028
0 50 C C -0.000016
0 50 C U 0.001367
0 50 C G -0.000016
0 50 C - -0.000024
0 50 U A 0.000011
0 50 U C 0.000003
0 50 U U 0.002070
0 50 U G 0.000023
0 50 U - 0.000009
0 50 G A 0.000014
0 50 G C 0.000063
0 50 G U 0.000912
0 50 G G 0.000008
0 50 G - -0.000021
0 50 - A -0.000001
0 50 - C 0.000005
0 50 - U 0.004220
0 50 - G -0.000018
0 50 - - -0.000019
0 51 A A -0.000068
0 51 A C -0.095641
0 51 A U 0.094947
0 51 A G 0.001209
0 51 A - 0.002862
0 51 C A 0.000024
0 51 C C -0.000002
0 51 C U 0.000625
0 51 C G 0.000040
0 51 C - 0.000024
0 51 U A 0.000027
0 51 U C -0.000021
0 51 U U -0.000052
0 51 U G 0.000052
0 51 U - 0.000912
0 51 G A 0.000051
0 51 G C 0.002757
0 51 G U -0.166204
0 51 G G 0.000019
0 51 G - 0.000008
0 51 - A 0.000044
0 51 - C 0.000045
0 51 - U -0.000035
0 51 - G 0.000014
0 51 - - -0.000040
0 52 A A -0.001652
0 52 A C -0.063521
0 52 A U 0.000462
0 52 A G 0.000190
0 52 A - 0.002093
0 52 C A -0.000000
0 52 C C 0.000022
0 52 C U 0.000590
0 52 C G 0.000052
0 52 C - -0.000041
0 52 U A -0.000012
0 52 U C 0.000024
0 52 U U 0.000643
0 52 U G -0.000040
0 52 U - -0.000036
0 52 G A -0.000042
0 52 G C 0.000051
0 52 G U -0.021575
0 52 G G 0.000026
0 52 G - -0.000015
0 52 - A 0.000039
0 52 - C -0.000017
0 52 - U 0.000014
0 52 - G 0.000028
0 52 - - 0.000044
0 53 A A 0.001359
0 53 A C -0.004148
0 53 A U -0.006199
0 53 A G 0.219945
0 53 A - 0.050932
0 53 C A 0.000046
0 53 C C 0.000667
0 53 C U -0.000022
0 53 C G 0.000003
0 53 C - 0.000047
0 53 U A -0.000029
0 53 U C 0.000053
0 53 U U 0.000943
0 53 U G 0.001004
0 53 U - 0.000036
0 53 G A 0.002793
0 53 G C 0.001196
0 53 G U 0.000040
0 53 G G -0.609252
0 53 G - 0.000054
0 53 - A -0.000026
0 53 - C 0.000001
0 53 - U 0.000021
0 53 - G 0.000033
0 53 - - -0.000011
0 54 A A -0.019983
0 54 A C 0.000175
0 54 A U -0.000089
0 54 A G 0.000025
0 54 A - 0.003429
0 54 C A -0.000033
0 54 C C -0.000040
0 54 C U -0.000001
0 54 C G 0.000487
0 54 C - -0.000003
0 54 U A 0.000613
0 54 U C 0.000039
0 54 U U -0.000025
0 54 U G 0.000468
0 54 U - -0.000010
0 54 G A 0.000077
0 54 G C -0.000012
0 54 G U -0.000017
0 54 G G 0.000523
0 54 G - -0.000026
0 54 - A 0.000008
0 54 - C 0.000034
0 54 - U -0.000025
0 54 - G 0.000020
0 54 - - 0.000012
0 55 A A -0.007596
0 55 A C 0.000509
0 55 A U -0.003947
0 55 A G 0.001407
0 55 A - 0.005679
0 55 C A -0.000040
0 55 C C 0.000034
0 55 C U 0.000010
0 55 C G 0.000552
0 55 C - 0.000034
0 55 U A -0.000032
0 55 U C 0.000856
0 55 U U 0.000013
0 55 U G -0.001805
0 55 U - 0.000050
0 55 G A 0.000429
0 55 G C -0.000256
0 55 G U 0.000626
0 55 G G -0.000022
0 55 G - -0.000017
0 55 - A 0.000015
0 55 - C 0.000024
0 55 - U 0.000028
0 55 - G 0.000013
0 55 - - -0.000005
0 56 A A 0.000252
0 56 A C -0.000045
0 56 A U -0.000098
0 56 A G -0.019334
0 56 A - 0.001115
0 56 C A 0.000012
0 56 C C -0.000010
0 56 C U 0.000034
0 56 C G 0.000521
0 56 C - -0.000031
0 56 U A 0.000045
0 56 U C 0.000015
0 56 U U -0.000026
0 56 U G 0.000653
0 56 U - -0.000001
0 56 G A 0.000039
0 56 G C 0.000024
0 56 G U -0.000435
0 56 G G 0.002628
0 56 G - -0.000044
0 56 - A -0.000036
0 56 - C -0.000024
0 56 - U 0.000024
0 56 - G -0.000036
0 56 - - -0.000024
0 57 A A -0.003659
0 57 A C 0.000667
0 57 A U -0.000211
0 57 A G 0.000002
0 57 A - 0.000443
0 57 C A 0.000541
0 57 C C -0.000019
0 57 C U 0.000032
0 57 C G -0.000030
0 57 C - -0.000019
0 57 U A 0.000614
0 57 U C -0.000019
0 57 U U 0.000004
0 57 U G -0.000019
0 57 U - 0.000032
0 57 G A -0.001688
0 57 G C -0.000023
0 57 G U 0.000004
0 57 G G 0.000050
0 57 G - 0.000002
0 57 - A 0.000042
0 57 - C -0.000019
0 57 - U 0.000044
0 57 - G -0.000001
0 57 - - -0.000019
0 58 A A -0.000045
0 58 A C -0.009792
0 58 A U 0.001391
0 58 A G 0.001033
0 58 A - 0.000011
0 58 C A 0.000016
0 58 C C 0.000538
0 58 C U 0.000013
0 58 C G 0.000019
0 58 C - -0.000016
0 58 U A 0.000009
0 58 U C 0.000625
0 58 U U 0.000028
0 58 U G 0.000028
0 58 U - 0.000002
0 58 G A 0.000022
0 58 G C 0.000537
0 58 G U 0.000032
0 58 G G 0.000022
0 58 G - -0.000016
0 58 - A 0.000019
0 58 - C 0.000045
0 58 - U 0.000007
0 58 - G 0.000028
0 58 - - -0.000016
0 59 A A -0.000031
0 59 A C -0.000027
0 59 A U -0.003564
0 59 A G 0.000038
0 59 A - -0.000044
0 59 C A -0.000009
0 59 C C -0.000036
0 59 C U 0.000501
0 59 C G -0.000019
0 59 C - -0.000036
0 59 U A -0.000020
0 59 U C -0.000036
0 59 U U 0.000667
0 59 U G -0.000036
0 59 U - -0.000036
0 59 G A -0.000036
0 59 G C -0.000049
0 59 G U 0.000438
0 59 G G 0.000025
0 59 G - 0.000011
0 59 - A -0.000036
0 59 - C -0.000036
0 59 - U -0.000049
0 59 - G -0.000001
0 59 - - -0.000036
0 60 A A -0.007197
0 60 A C -0.000011
0 60 A U 0.000047
0 60 A G 0.000040
0 60 A - 0.000031
0 60 C A 0.000465
0 60 C C -0.000033
0 60 C U -0.000035
0 60 C G -0.000035
0 60 C - -0.000018
0 60 U A 0.000602
0 60 U C -0.000035
0 60 U U 0.000015
0 60 U G -0.000035
0 60 U - -0.000016
0 60 G A 0.000500
0 60 G C 0.000011
0 60 G U -0.000033
0 60 G G -0.000035
0 60 G - -0.000017
0 60 - A -0.000031
0 60 - C -0.000035
0 60 - U -0.000035
0 60 - G -0.000035
0 60 - - 0.000005
0 61 A A 0.000011
0 61 A C -0.000038
0 61 A U -0.005551
0 61 A G -0.000045
0 61 A - 0.000042
0 61 C A -0.000013
0 61 C C 0.000004
0 61 C U 0.000500
0 61 C G -0.000013
0 61 C - 0.000026
0 61 U A 0.000007
0 61 U C -0.000013
0 61 U U 0.000581
0 61 U G -0.000013
0 61 U - 0.000005
0 61 G A 0.000008
0 61 G C 0.000023
0 61 G U 0.000108
0 61 G G -0.000013
0 61 G - 0.000015
0 61 - A 0.000008
0 61 - C -0.000013
0 61 - U -0.000014
0 61 - G -0.000011
0 61 - - -0.000013
0 62 A A -0.006469
0 62 A C 0.000230
0 62 A U 0.000014
0 62 A G -0.000055
0 62 A - 0.000895
0 62 C A 0.000508
0 62 C C -0.000015
0 62 C U -0.000015
0 62 C G 0.000016
0 62 C - -0.000007
0 62 U A 0.000651
0 62 U C -0.000004
0 62 U U 0.000035
0 62 U G 0.000020
0 62 U - -0.000015
0 62 G A -0.003252
0 62 G C 0.000049
0 62 G U -0.000036
0 62 G G -0.000026
0 62 G - -0.000001
0 62 - A 0.000025
0 62 - C -0.000007
0 62 - U 0.000005
0 62 - G -0.000041
0 62 - - -0.000041
0 63 A A -0.003202
0 63 A C 0.000040
0 63 A U 0.000018
0 63 A G -0.049198
0 63 A - 0.000060
0 63 C A 0.000486
0 63 C C 0.000045
0 63 C U 0.000028
0 63 C G 0.000004
0 63 C - -0.000021
0 63 U A 0.000664
0 63 U C -0.000001
0 63 U U 0.000046
0 63 U G -0.000048
0 63 U - 0.000046
0 63 G A -0.000347
0 63 G C 0.000044
0 63 G U -0.000006
0 63 G G 0.000002
0 63 G - 0.000659
0 63 - A 0.000029
0 63 - C -0.000037
0 63 - U 0.000043
0 63 - G 0.000034
0 63 - - 0.000046
0 64 A A -0.000038
0 64 A C 0.000914
0 64 A U -0.000049
0 64 A G -0.004731
0 64 A - -0.000043
0 64 C A -0.000001
0 64 C C -0.000001
0 64 C U -0.000001
0 64 C G 0.000511
0 64 C - -0.000001
0 64 U A -0.000001
0 64 U C 0.000029
0 64 U U 0.000016
0 64 U G 0.000592
0 64 U - -0.000001
0 64 G A -0.000046
0 64 G C -0.000044
0 64 G U -0.000048
0 64 G G 0.000441
0 64 G - -0.000001
0 64 - A 0.000016
0 64 - C 0.000018
0 64 - U -0.000001
0 64 - G -0.000028
0 64 - - 0.000024
0 65 A A 0.000613
0 65 A C 0.000849
0 65 A U 0.000039
0 65 A G -0.000027
0 65 A - -0.353565
0 65 C A 0.000046
0 65 C C -0.000009
0 65 C U 0.000010
0 65 C G 0.000011
0 65 C - 0.003193
0 65 U A 0.000005
0 65 U C 0.000039
0 65 U U 0.000008
0 65 U G 0.000034
0 65 U - 0.000683
0 65 G A 0.000009
0 65 G C 0.000490
0 65 G U 0.000047
0 65 G G -0.000011
0 65 G - 0.003177
0 65 - A 0.000033
0 65 - C -0.000034
0 65 - U -0.000017
0 65 - G -0.000018
0 65 - - 0.002221