# NB_STEPS 3000
# UP_FREQ 1000
# TEMP 1.000000
# LAMBDA 0.050000
# ID_THRES 1.000000
# ALPHA 1.000000
0 0 A A -0.004312
0 0 C C -0.000005
0 0 U U -0.000003
0 0 G G -0.001638
0 0 - - 0.003574
0 1 A A -0.000032
0 1 A C 0.000021
0 1 A U 0.000001
0 1 A G -0.043975
0 1 A - 0.000765
0 1 C A 0.000037
0 1 C C 0.000037
0 1 C U 0.000037
0 1 C G 0.000015
0 1 C - 0.000037
0 1 U A -0.000045
0 1 U C 0.000050
0 1 U U 0.000052
0 1 U G 0.000030
0 1 U - 0.000037
0 1 G A 0.001231
0 1 G C -0.000014
0 1 G U -0.000028
0 1 G G -0.009809
0 1 G - 0.000022
0 1 - A -0.000047
0 1 - C -0.000031
0 1 - U 0.000037
0 1 - G 0.003836
0 1 - - 0.000037
0 2 A A -0.000030
0 2 A C 0.000042
0 2 A U -0.000027
0 2 A G -0.031909
0 2 A - 0.000033
0 2 C A 0.000025
0 2 C C 0.000040
0 2 C U -0.000039
0 2 C G -0.000046
0 2 C - 0.000042
0 2 U A 0.000025
0 2 U C 0.000041
0 2 U U 0.000025
0 2 U G -0.000044
0 2 U - 0.000025
0 2 G A 0.000027
0 2 G C -0.000025
0 2 G U 0.000022
0 2 G G -0.001815
0 2 G - 0.000023
0 2 - A 0.000043
0 2 - C 0.000025
0 2 - U 0.000025
0 2 - G 0.003691
0 2 - - 0.000025
0 3 A A 0.000466
0 3 A C -0.364665
0 3 A U -0.000133
0 3 A G 0.000050
0 3 A - 0.000014
0 3 C A 0.000049
0 3 C C 0.000586
0 3 C U 0.000030
0 3 C G 0.000029
0 3 C - 0.000004
0 3 U A 0.000028
0 3 U C 0.000073
0 3 U U -0.000028
0 3 U G 0.000004
0 3 U - 0.000047
0 3 G A 0.000010
0 3 G C 0.002113
0 3 G U -0.004966
0 3 G G 0.000349
0 3 G - -0.000004
0 3 - A 0.000029
0 3 - C 0.001698
0 3 - U 0.002291
0 3 - G 0.000004
0 3 - - 0.000053
0 4 A A 0.000007
0 4 A C 0.000048
0 4 A U 0.000427
0 4 A G -0.040588
0 4 A - -0.001399
0 4 C A -0.000006
0 4 C C -0.000006
0 4 C U 0.000011
0 4 C G 0.000032
0 4 C - 0.000217
0 4 U A 0.000028
0 4 U C -0.000006
0 4 U U -0.000006
0 4 U G -0.000018
0 4 U - 0.000035
0 4 G A 0.000037
0 4 G C 0.000907
0 4 G U -0.000016
0 4 G G -0.000019
0 4 G - -0.119997
0 4 - A 0.000047
0 4 - C 0.000047
0 4 - U 0.000029
0 4 - G -0.000014
0 4 - - 0.003333
0 5 A A 0.000027
0 5 A C -0.058597
0 5 A U -0.000026
0 5 A G 0.001899
0 5 A - -0.000190
0 5 C A 0.000025
0 5 C C -0.000041
0 5 C U -0.000037
0 5 C G 0.000042
0 5 C - 0.000254
0 5 U A 0.000055
0 5 U C -0.000024
0 5 U U 0.000043
0 5 U G -0.000021
0 5 U - 0.000024
0 5 G A 0.000036
0 5 G C 0.000013
0 5 G U 0.000027
0 5 G G 0.000033
0 5 G - -0.116584
0 5 - A 0.000045
0 5 - C 0.000049
0 5 - U -0.000038
0 5 - G -0.000003
0 5 - - 0.003336
0 6 A A -0.046022
0 6 A C 0.000033
0 6 A U 0.000023
0 6 A G -0.000027
0 6 A - 0.000035
0 6 C A 0.000040
0 6 C C 0.000038
0 6 C U 0.000028
0 6 C G 0.000044
0 6 C - 0.000028
0 6 U A 0.000030
0 6 U C 0.000028
0 6 U U 0.000043
0 6 U G 0.000028
0 6 U - -0.000045
0 6 G A -0.003749
0 6 G C 0.000007
0 6 G U 0.000041
0 6 G G -0.000044
0 6 G - -0.000006
0 6 - A 0.003827
0 6 - C 0.000028
0 6 - U 0.000028
0 6 - G 0.000028
0 6 - - 0.000042
0 7 A A 0.000024
0 7 A C 0.001373
0 7 A U -0.001716
0 7 A G -0.004023
0 7 A - -0.000015
0 7 C A 0.000017
0 7 C C 0.000019
0 7 C U 0.000007
0 7 C G 0.000048
0 7 C - -0.000009
0 7 U A 0.000021
0 7 U C 0.000023
0 7 U U 0.000013
0 7 U G 0.000045
0 7 U - 0.000022
0 7 G A 0.000006
0 7 G C -0.000023
0 7 G U -0.003899
0 7 G G 0.000048
0 7 G - 0.000011
0 7 - A 0.000005
0 7 - C -0.000009
0 7 - U 0.002549
0 7 - G 0.000551
0 7 - - 0.000021
0 8 A A 0.000000
0 8 A C 0.000022
0 8 A U -0.031786
0 8 A G 0.000025
0 8 A - 0.000045
0 8 C A -0.000041
0 8 C C 0.000040
0 8 C U -0.000017
0 8 C G 0.000040
0 8 C - 0.000040
0 8 U A 0.000040
0 8 U C 0.000040
0 8 U U -0.000018
0 8 U G 0.000040
0 8 U - -0.000044
0 8 G A -0.000039
0 8 G C 0.000021
0 8 G U -0.001813
0 8 G G -0.000009
0 8 G - 0.000033
0 8 - A 0.000040
0 8 - C 0.000040
0 8 - U 0.003740
0 8 - G 0.000040
0 8 - - 0.000040
0 9 A A -0.000044
0 9 A C 0.000031
0 9 A U -0.032544
0 9 A G -0.000005
0 9 A - 0.000046
0 9 C A 0.000035
0 9 C C 0.000021
0 9 C U 0.000015
0 9 C G 0.000021
0 9 C - 0.000021
0 9 U A 0.000021
0 9 U C 0.000021
0 9 U U -0.000047
0 9 U G 0.000021
0 9 U - 0.000021
0 9 G A -0.000007
0 9 G C -0.000007
0 9 G U -0.004330
0 9 G G 0.000021
0 9 G - 0.000017
0 9 - A 0.000036
0 9 - C 0.000021
0 9 - U 0.003670
0 9 - G 0.000021
0 9 - - 0.000021
0 10 A A -0.000030
0 10 A C 0.000039
0 10 A U -0.000045
0 10 A G -0.078127
0 10 A - 0.000044
0 10 C A 0.000021
0 10 C C -0.000000
0 10 C U 0.000001
0 10 C G 0.000013
0 10 C - -0.000017
0 10 U A 0.000001
0 10 U C -0.000017
0 10 U U 0.000001
0 10 U G -0.000001
0 10 U - -0.000001
0 10 G A 0.000891
0 10 G C -0.000000
0 10 G U -0.000017
0 10 G G -0.001162
0 10 G - -0.000032
0 10 - A 0.000027
0 10 - C 0.000024
0 10 - U -0.000035
0 10 - G 0.003988
0 10 - - -0.000017
0 11 A A -0.042177
0 11 A C 0.000352
0 11 A U 0.000008
0 11 A G -0.000003
0 11 A - 0.000033
0 11 C A 0.000030
0 11 C C -0.000045
0 11 C U -0.000013
0 11 C G -0.000045
0 11 C - -0.000045
0 11 U A -0.000006
0 11 U C -0.000045
0 11 U U -0.000045
0 11 U G -0.000030
0 11 U - -0.000045
0 11 G A -0.003082
0 11 G C -0.000044
0 11 G U 0.000037
0 11 G G 0.000619
0 11 G - -0.000048
0 11 - A 0.003716
0 11 - C -0.000031
0 11 - U -0.000045
0 11 - G -0.000045
0 11 - - -0.000045
0 12 A A -0.022580
0 12 A C 0.000017
0 12 A U 0.000029
0 12 A G 0.000020
0 12 A - 0.000013
0 12 C A -0.000010
0 12 C C -0.000026
0 12 C U -0.000039
0 12 C G -0.000039
0 12 C - -0.000010
0 12 U A 0.000003
0 12 U C -0.000039
0 12 U U -0.000039
0 12 U G -0.000039
0 12 U - -0.000039
0 12 G A -0.014585
0 12 G C 0.000025
0 12 G U -0.000011
0 12 G G 0.000018
0 12 G - -0.000004
0 12 - A 0.003714
0 12 - C -0.000039
0 12 - U -0.000039
0 12 - G -0.000026
0 12 - - -0.000039
0 13 A A -0.000008
0 13 A C -0.029673
0 13 A U -0.000033
0 13 A G 0.000041
0 13 A - 0.000027
0 13 C A 0.000043
0 13 C C 0.000041
0 13 C U 0.000028
0 13 C G 0.000047
0 13 C - 0.000028
0 13 U A 0.000028
0 13 U C 0.000035
0 13 U U 0.000028
0 13 U G 0.000040
0 13 U - 0.000028
0 13 G A -0.000045
0 13 G C -0.001632
0 13 G U -0.000011
0 13 G G -0.000024
0 13 G - 0.000012
0 13 - A 0.000045
0 13 - C 0.003741
0 13 - U 0.000028
0 13 - G 0.000047
0 13 - - 0.000047
0 14 A A 0.000933
0 14 A C 0.403621
0 14 A U -0.978992
0 14 A G 0.000720
0 14 A - 0.000078
0 14 C A 0.000035
0 14 C C 0.000077
0 14 C U 0.001432
0 14 C G 0.000024
0 14 C - 0.000042
0 14 U A 0.000046
0 14 U C 0.000581
0 14 U U 0.000068
0 14 U G 0.000005
0 14 U - 0.000062
0 14 G A 0.000269
0 14 G C -0.292730
0 14 G U 0.007805
0 14 G G 0.011382
0 14 G - 0.011154
0 14 - A 0.000628
0 14 - C 0.002162
0 14 - U 0.015096
0 14 - G 0.000024
0 14 - - 0.000050
0 15 A A -0.000218
0 15 A C 0.000024
0 15 A U -0.000036
0 15 A G -0.034417
0 15 A - -0.000020
0 15 C A -0.000007
0 15 C C 0.000030
0 15 C U 0.000047
0 15 C G -0.000047
0 15 C - 0.000013
0 15 U A 0.000049
0 15 U C 0.000046
0 15 U U -0.000037
0 15 U G -0.000035
0 15 U - 0.000049
0 15 G A -0.023877
0 15 G C 0.000016
0 15 G U 0.000146
0 15 G G -0.001320
0 15 G - -0.000042
0 15 - A 0.000578
0 15 - C 0.000030
0 15 - U 0.000013
0 15 - G 0.002048
0 15 - - 0.000013
0 16 A A -0.000081
0 16 A C 0.000032
0 16 A U -0.052982
0 16 A G 0.000007
0 16 A - 0.000353
0 16 C A -0.000021
0 16 C C -0.000023
0 16 C U -0.000030
0 16 C G -0.000039
0 16 C - 0.000010
0 16 U A -0.000039
0 16 U C -0.000024
0 16 U U -0.000023
0 16 U G -0.000039
0 16 U - -0.000039
0 16 G A 0.000720
0 16 G C 0.000052
0 16 G U -0.001124
0 16 G G 0.000035
0 16 G - -0.000015
0 16 - A 0.000043
0 16 - C 0.000013
0 16 - U 0.003147
0 16 - G -0.000005
0 16 - - 0.000010
0 17 A A -0.007327
0 17 A C -0.000028
0 17 A U 0.000423
0 17 A G -0.000042
0 17 A - -0.000008
0 17 C A 0.000148
0 17 C C 0.000016
0 17 C U 0.000016
0 17 C G 0.000032
0 17 C - 0.000036
0 17 U A 0.000008
0 17 U C 0.000016
0 17 U U 0.000032
0 17 U G 0.000051
0 17 U - 0.000031
0 17 G A -0.137522
0 17 G C 0.000033
0 17 G U -0.000034
0 17 G G 0.000702
0 17 G - 0.000017
0 17 - A 0.004203
0 17 - C -0.000011
0 17 - U 0.000035
0 17 - G -0.000031
0 17 - - 0.000016
0 18 A A -0.000028
0 18 A C -0.000040
0 18 A U -0.046053
0 18 A G -0.000022
0 18 A - -0.000047
0 18 C A -0.000008
0 18 C C -0.000008
0 18 C U 0.000034
0 18 C G -0.000008
0 18 C - 0.000009
0 18 U A -0.000008
0 18 U C -0.000008
0 18 U U -0.000036
0 18 U G 0.000009
0 18 U - -0.000008
0 18 G A -0.000008
0 18 G C 0.000010
0 18 G U -0.002680
0 18 G G -0.000029
0 18 G - 0.000039
0 18 - A 0.000009
0 18 - C 0.000027
0 18 - U 0.003795
0 18 - G 0.000028
0 18 - - -0.000008
0 19 A A -0.000047
0 19 A C -0.000013
0 19 A U -0.043185
0 19 A G -0.000028
0 19 A - 0.000811
0 19 C A -0.000021
0 19 C C -0.000021
0 19 C U 0.000040
0 19 C G -0.000021
0 19 C - -0.000021
0 19 U A -0.000021
0 19 U C -0.000002
0 19 U U -0.000018
0 19 U G -0.000021
0 19 U - -0.000005
0 19 G A 0.000000
0 19 G C 0.000022
0 19 G U -0.007063
0 19 G G 0.000016
0 19 G - 0.000037
0 19 - A -0.000021
0 19 - C -0.000021
0 19 - U 0.003750
0 19 - G -0.000011
0 19 - - -0.000021
0 20 A A -0.000029
0 20 A C 0.000033
0 20 A U 0.000027
0 20 A G -0.039368
0 20 A - -0.000003
0 20 C A -0.000024
0 20 C C -0.000024
0 20 C U -0.000024
0 20 C G 0.000048
0 20 C - -0.000024
0 20 U A -0.000024
0 20 U C -0.000024
0 20 U U -0.000006
0 20 U G -0.000039
0 20 U - -0.000024
0 20 G A 0.000027
0 20 G C 0.000028
0 20 G U 0.000025
0 20 G G -0.004199
0 20 G - 0.000047
0 20 - A -0.000024
0 20 - C -0.000009
0 20 - U -0.000024
0 20 - G 0.003790
0 20 - - -0.000024
0 21 A A 0.000047
0 21 A C 0.000038
0 21 A U -0.023884
0 21 A G -0.000044
0 21 A - -0.000028
0 21 C A 0.000008
0 21 C C 0.000025
0 21 C U 0.000038
0 21 C G 0.000024
0 21 C - 0.000037
0 21 U A 0.000008
0 21 U C 0.000023
0 21 U U -0.000030
0 21 U G 0.000008
0 21 U - 0.000008
0 21 G A 0.000043
0 21 G C -0.000036
0 21 G U -0.003055
0 21 G G -0.000002
0 21 G - 0.000041
0 21 - A 0.000024
0 21 - C 0.000008
0 21 - U 0.003635
0 21 - G 0.000008
0 21 - - 0.000020
0 22 A A -0.051232
0 22 A C 0.000023
0 22 A U 0.000365
0 22 A G 0.000191
0 22 A - 0.000032
0 22 C A 0.000022
0 22 C C 0.000001
0 22 C U 0.000003
0 22 C G 0.000511
0 22 C - 0.000001
0 22 U A 0.000054
0 22 U C 0.000001
0 22 U U 0.000004
0 22 U G 0.000041
0 22 U - 0.000001
0 22 G A -0.000028
0 22 G C 0.000151
0 22 G U -0.000006
0 22 G G -0.280942
0 22 G - -0.000001
0 22 - A 0.000639
0 22 - C 0.000022
0 22 - U -0.000018
0 22 - G 0.002969
0 22 - - 0.000039
0 23 A A -0.000012
0 23 A C -0.001806
0 23 A U 0.000052
0 23 A G -0.000001
0 23 A - -0.000030
0 23 C A -0.000037
0 23 C C 0.000080
0 23 C U -0.000007
0 23 C G -0.000034
0 23 C - -0.000014
0 23 U A -0.000018
0 23 U C 0.000048
0 23 U U -0.000035
0 23 U G 0.000048
0 23 U - -0.000036
0 23 G A 0.000004
0 23 G C -0.082790
0 23 G U 0.000044
0 23 G G -0.000011
0 23 G - 0.000033
0 23 - A 0.000048
0 23 - C 0.002156
0 23 - U 0.000048
0 23 - G -0.000000
0 23 - - 0.000501
0 24 A A -0.049192
0 24 A C 0.000134
0 24 A U 0.000029
0 24 A G -0.000280
0 24 A - 0.000008
0 24 C A 0.000032
0 24 C C -0.000038
0 24 C U 0.000042
0 24 C G 0.000489
0 24 C - 0.000056
0 24 U A 0.000060
0 24 U C -0.000034
0 24 U U -0.000016
0 24 U G -0.000019
0 24 U - -0.000012
0 24 G A -0.000059
0 24 G C 0.000032
0 24 G U 0.000044
0 24 G G -0.256205
0 24 G - 0.000019
0 24 - A 0.000051
0 24 - C 0.000045
0 24 - U 0.000023
0 24 - G 0.002481
0 24 - - -0.000015
0 25 A A 0.000012
0 25 A C -0.020224
0 25 A U 0.000044
0 25 A G -0.000021
0 25 A - 0.000033
0 25 C A 0.000006
0 25 C C -0.000005
0 25 C U -0.000007
0 25 C G 0.000008
0 25 C - -0.000007
0 25 U A -0.000007
0 25 U C -0.000001
0 25 U U -0.000007
0 25 U G 0.000003
0 25 U - 0.000011
0 25 G A 0.000009
0 25 G C -0.008747
0 25 G U 0.000016
0 25 G G 0.000035
0 25 G - 0.000015
0 25 - A -0.000007
0 25 - C 0.003693
0 25 - U -0.000007
0 25 - G -0.000007
0 25 - - -0.000007
0 26 A A 0.000013
0 26 A C -0.049543
0 26 A U -0.000004
0 26 A G -0.000006
0 26 A - 0.000712
0 26 C A 0.000030
0 26 C C 0.000046
0 26 C U 0.000047
0 26 C G 0.000030
0 26 C - 0.000030
0 26 U A 0.000030
0 26 U C 0.000045
0 26 U U 0.000034
0 26 U G 0.000046
0 26 U - 0.000030
0 26 G A -0.000029
0 26 G C -0.002321
0 26 G U -0.000024
0 26 G G 0.000045
0 26 G - 0.000049
0 26 - A 0.000048
0 26 - C 0.003764
0 26 - U -0.000036
0 26 - G 0.000030
0 26 - - 0.000030
0 27 A A 0.000063
0 27 A C 0.679235
0 27 A U -1.252635
0 27 A G 0.000029
0 27 A - 0.000035
0 27 C A 0.000037
0 27 C C 0.000018
0 27 C U 0.001341
0 27 C G 0.000039
0 27 C - 0.000072
0 27 U A 0.000045
0 27 U C 0.000560
0 27 U U 0.000014
0 27 U G 0.000045
0 27 U - 0.000033
0 27 G A 0.001988
0 27 G C -0.718095
0 27 G U 0.491249
0 27 G G 0.000738
0 27 G - 0.000002
0 27 - A 0.000051
0 27 - C 0.003141
0 27 - U 0.001380
0 27 - G 0.000014
0 27 - - 0.000067
0 28 A A -0.185047
0 28 A C 0.008085
0 28 A U -0.001772
0 28 A G 0.147977
0 28 A - 0.000343
0 28 C A -0.000004
0 28 C C 0.000063
0 28 C U 0.000660
0 28 C G 0.000033
0 28 C - 0.000064
0 28 U A 0.000041
0 28 U C -0.000011
0 28 U U 0.000113
0 28 U G 0.000004
0 28 U - 0.000033
0 28 G A 0.002155
0 28 G C 0.000033
0 28 G U -0.000685
0 28 G G -0.393639
0 28 G - 0.001325
0 28 - A 0.000006
0 28 - C 0.000006
0 28 - U 0.003144
0 28 - G -0.000003
0 28 - - 0.000025
0 29 A A 0.000570
0 29 A C -0.000035
0 29 A U 0.000312
0 29 A G -0.067567
0 29 A - 0.000000
0 29 C A 0.000036
0 29 C C 0.000013
0 29 C U 0.000013
0 29 C G -0.000007
0 29 C - 0.000013
0 29 U A 0.000025
0 29 U C 0.000013
0 29 U U 0.000013
0 29 U G 0.000041
0 29 U - 0.000035
0 29 G A -0.001524
0 29 G C -0.000034
0 29 G U 0.000031
0 29 G G 0.000647
0 29 G - 0.000038
0 29 - A -0.000040
0 29 - C 0.000029
0 29 - U 0.000031
0 29 - G 0.002725
0 29 - - 0.000013
0 30 A A -0.000039
0 30 A C -0.053175
0 30 A U -0.000028
0 30 A G 0.000003
0 30 A - 0.000050
0 30 C A -0.000014
0 30 C C 0.000057
0 30 C U 0.000002
0 30 C G -0.000014
0 30 C - -0.000014
0 30 U A -0.000014
0 30 U C -0.000041
0 30 U U -0.000014
0 30 U G -0.000014
0 30 U - -0.000014
0 30 G A -0.000011
0 30 G C -0.003652
0 30 G U -0.000008
0 30 G G -0.000037
0 30 G - -0.000007
0 30 - A 0.000019
0 30 - C 0.002810
0 30 - U 0.000017
0 30 - G -0.000014
0 30 - - -0.000014
0 31 A A -0.069147
0 31 A C 0.010123
0 31 A U 0.091508
0 31 A G -0.000027
0 31 A - 0.001724
0 31 C A 0.000067
0 31 C C 0.000003
0 31 C U 0.001102
0 31 C G -0.000022
0 31 C - 0.000019
0 31 U A 0.000008
0 31 U C 0.000048
0 31 U U 0.000399
0 31 U G 0.000004
0 31 U - 0.000043
0 31 G A 0.006516
0 31 G C 0.000419
0 31 G U -0.688771
0 31 G G 0.000772
0 31 G - 0.000072
0 31 - A 0.002612
0 31 - C -0.000009
0 31 - U 0.002473
0 31 - G 0.000007
0 31 - - 0.000045
0 32 A A 0.000019
0 32 A C -0.000001
0 32 A U -0.000011
0 32 A G -0.004993
0 32 A - 0.000866
0 32 C A -0.000024
0 32 C C -0.000023
0 32 C U -0.000003
0 32 C G 0.000113
0 32 C - -0.000023
0 32 U A 0.000013
0 32 U C -0.000005
0 32 U U -0.000005
0 32 U G -0.000015
0 32 U - -0.000005
0 32 G A -0.000010
0 32 G C -0.000039
0 32 G U 0.000051
0 32 G G -0.091955
0 32 G - 0.000025
0 32 - A -0.000039
0 32 - C 0.000514
0 32 - U -0.000020
0 32 - G 0.003040
0 32 - - -0.000020
0 33 A A 0.000034
0 33 A C -0.004658
0 33 A U -0.005456
0 33 A G 0.000809
0 33 A - -0.000043
0 33 C A 0.000006
0 33 C C 0.000013
0 33 C U 0.000037
0 33 C G -0.000001
0 33 C - 0.000016
0 33 U A -0.000001
0 33 U C 0.000048
0 33 U U 0.000010
0 33 U G 0.000007
0 33 U - -0.000001
0 33 G A -0.000026
0 33 G C -0.008007
0 33 G U -0.000956
0 33 G G 0.000043
0 33 G - -0.000025
0 33 - A -0.000001
0 33 - C 0.002702
0 33 - U 0.000032
0 33 - G 0.000026
0 33 - - 0.000030
0 34 A A -0.033208
0 34 A C -0.000009
0 34 A U -0.001829
0 34 A G 0.000224
0 34 A - 0.000622
0 34 C A -0.000017
0 34 C C -0.000036
0 34 C U 0.000158
0 34 C G 0.000026
0 34 C - 0.000008
0 34 U A -0.000013
0 34 U C -0.000034
0 34 U U 0.000031
0 34 U G 0.000042
0 34 U - 0.000006
0 34 G A 0.000021
0 34 G C -0.086712
0 34 G U -0.000678
0 34 G G 0.000009
0 34 G - 0.000633
0 34 - A 0.000014
0 34 - C 0.000149
0 34 - U 0.001895
0 34 - G 0.000025
0 34 - - 0.000042
0 35 A A -0.500914
0 35 A C -0.000059
0 35 A U 0.001351
0 35 A G 0.007379
0 35 A - 0.003340
0 35 C A -0.000020
0 35 C C -0.000003
0 35 C U -0.000003
0 35 C G 0.000020
0 35 C - 0.000037
0 35 U A 0.000035
0 35 U C 0.000050
0 35 U U 0.000185
0 35 U G 0.000046
0 35 U - 0.000035
0 35 G A 0.004743
0 35 G C 0.000053
0 35 G U -0.014343
0 35 G G -0.000029
0 35 G - 0.000915
0 35 - A 0.001892
0 35 - C 0.000050
0 35 - U 0.002313
0 35 - G -0.000017
0 35 - - -0.000007
0 36 A A -0.002302
0 36 A C 0.000002
0 36 A U 0.000452
0 36 A G -0.000031
0 36 A - -0.000013
0 36 C A 0.000133
0 36 C C 0.000028
0 36 C U -0.000032
0 36 C G -0.000016
0 36 C - -0.000038
0 36 U A 0.000041
0 36 U C 0.000028
0 36 U U 0.000028
0 36 U G 0.000047
0 36 U - 0.000051
0 36 G A -0.139381
0 36 G C 0.000619
0 36 G U 0.000008
0 36 G G 0.000017
0 36 G - 0.000024
0 36 - A 0.004194
0 36 - C 0.000048
0 36 - U 0.000028
0 36 - G 0.000049
0 36 - - 0.000047
0 37 A A -0.037154
0 37 A C 0.000035
0 37 A U 0.000006
0 37 A G -0.000009
0 37 A - 0.000046
0 37 C A 0.000035
0 37 C C -0.000029
0 37 C U -0.000042
0 37 C G -0.000026
0 37 C - -0.000042
0 37 U A -0.000024
0 37 U C -0.000026
0 37 U U -0.000042
0 37 U G -0.000042
0 37 U - -0.000042
0 37 G A -0.003735
0 37 G C 0.000018
0 37 G U -0.000013
0 37 G G -0.000014
0 37 G - -0.000020
0 37 - A 0.003769
0 37 - C -0.000042
0 37 - U -0.000015
0 37 - G -0.000042
0 37 - - -0.000042
0 38 A A 0.000033
0 38 A C -0.000045
0 38 A U 0.000033
0 38 A G -0.043898
0 38 A - -0.000021
0 38 C A 0.000049
0 38 C C -0.000035
0 38 C U 0.000049
0 38 C G -0.000029
0 38 C - 0.000049
0 38 U A 0.000049
0 38 U C 0.000049
0 38 U U 0.000049
0 38 U G -0.000009
0 38 U - 0.000049
0 38 G A -0.000027
0 38 G C 0.000025
0 38 G U 0.000030
0 38 G G -0.004239
0 38 G - 0.000047
0 38 - A 0.000049
0 38 - C 0.000049
0 38 - U 0.000013
0 38 - G 0.003040
0 38 - - -0.000038
0 39 A A -0.000073
0 39 A C 0.000544
0 39 A U -0.026679
0 39 A G 0.000316
0 39 A - 0.000058
0 39 C A 0.000057
0 39 C C 0.000523
0 39 C U 0.000057
0 39 C G -0.000022
0 39 C - 0.000055
0 39 U A -0.000024
0 39 U C 0.000065
0 39 U U -0.000010
0 39 U G 0.000059
0 39 U - -0.000028
0 39 G A 0.000035
0 39 G C -0.318047
0 39 G U -0.000017
0 39 G G 0.000050
0 39 G - 0.000044
0 39 - A -0.000004
0 39 - C 0.004046
0 39 - U -0.000030
0 39 - G -0.000022
0 39 - - -0.000022
0 40 A A -0.015369
0 40 A C 0.000002
0 40 A U 0.000036
0 40 A G -0.000042
0 40 A - -0.000032
0 40 C A 0.000019
0 40 C C 0.000033
0 40 C U 0.000021
0 40 C G -0.000034
0 40 C - 0.000021
0 40 U A 0.000018
0 40 U C 0.000021
0 40 U U 0.000021
0 40 U G 0.000035
0 40 U - -0.000047
0 40 G A -0.008064
0 40 G C 0.000049
0 40 G U -0.000001
0 40 G G -0.000024
0 40 G - -0.000035
0 40 - A 0.002595
0 40 - C 0.000021
0 40 - U 0.000033
0 40 - G 0.000021
0 40 - - -0.000031
0 41 A A -0.000043
0 41 A C -0.036449
0 41 A U -0.000023
0 41 A G 0.000044
0 41 A - 0.000027
0 41 C A -0.000012
0 41 C C -0.000029
0 41 C U -0.000029
0 41 C G -0.000029
0 41 C - -0.000029
0 41 U A -0.000029
0 41 U C 0.000009
0 41 U U -0.000022
0 41 U G 0.000004
0 41 U - 0.000004
0 41 G A -0.000019
0 41 G C -0.005073
0 41 G U 0.000026
0 41 G G -0.000014
0 41 G - 0.000576
0 41 - A -0.000029
0 41 - C 0.003758
0 41 - U -0.000029
0 41 - G -0.000029
0 41 - - -0.000029
0 42 A A 0.000043
0 42 A C -0.000021
0 42 A U -0.036076
0 42 A G -0.000044
0 42 A - 0.000351
0 42 C A -0.000041
0 42 C C -0.000041
0 42 C U 0.000006
0 42 C G -0.000041
0 42 C - -0.000026
0 42 U A -0.000041
0 42 U C -0.000023
0 42 U U -0.000046
0 42 U G -0.000024
0 42 U - -0.000024
0 42 G A 0.000049
0 42 G C -0.000033
0 42 G U -0.003499
0 42 G G 0.000043
0 42 G - 0.000050
0 42 - A -0.000041
0 42 - C -0.000041
0 42 - U 0.003762
0 42 - G -0.000041
0 42 - - -0.000041
0 43 A A -0.002055
0 43 A C -0.000001
0 43 A U -0.000069
0 43 A G 0.000007
0 43 A - 0.000008
0 43 C A 0.000107
0 43 C C 0.000021
0 43 C U 0.000021
0 43 C G 0.000021
0 43 C - 0.000005
0 43 U A -0.000034
0 43 U C -0.000027
0 43 U U -0.000036
0 43 U G 0.000039
0 43 U - 0.000042
0 43 G A -0.130656
0 43 G C -0.000026
0 43 G U 0.000029
0 43 G G 0.000007
0 43 G - 0.000028
0 43 - A 0.002851
0 43 - C -0.000040
0 43 - U -0.000025
0 43 - G 0.000021
0 43 - - -0.000025
0 44 A A -0.021350
0 44 A C -0.000037
0 44 A U 0.000841
0 44 A G 0.000002
0 44 A - -0.000021
0 44 C A -0.000003
0 44 C C 0.000049
0 44 C U 0.000033
0 44 C G 0.000033
0 44 C - 0.000046
0 44 U A -0.000036
0 44 U C 0.000033
0 44 U U -0.000031
0 44 U G -0.000034
0 44 U - 0.000033
0 44 G A -0.002184
0 44 G C 0.000044
0 44 G U 0.000046
0 44 G G 0.000006
0 44 G - -0.000033
0 44 - A 0.003688
0 44 - C -0.000031
0 44 - U -0.000035
0 44 - G 0.000049
0 44 - - 0.000033
0 45 A A -0.020635
0 45 A C 0.000024
0 45 A U -0.000021
0 45 A G 0.000025
0 45 A - 0.000214
0 45 C A -0.000011
0 45 C C 0.000039
0 45 C U 0.000039
0 45 C G 0.000039
0 45 C - 0.000039
0 45 U A 0.000041
0 45 U C -0.000046
0 45 U U 0.000039
0 45 U G 0.000044
0 45 U - 0.000039
0 45 G A -0.007938
0 45 G C -0.000009
0 45 G U -0.000020
0 45 G G 0.000002
0 45 G - -0.000005
0 45 - A 0.003686
0 45 - C -0.000016
0 45 - U 0.000039
0 45 - G -0.000046
0 45 - - 0.000039
0 46 A A -0.000926
0 46 A C 0.000000
0 46 A U -0.000035
0 46 A G -0.000014
0 46 A - -0.000031
0 46 C A -0.000007
0 46 C C -0.000045
0 46 C U -0.000050
0 46 C G 0.000015
0 46 C - 0.000015
0 46 U A -0.000026
0 46 U C -0.000030
0 46 U U -0.000041
0 46 U G 0.000032
0 46 U - -0.000030
0 46 G A -0.002934
0 46 G C -0.000006
0 46 G U 0.000953
0 46 G G 0.000023
0 46 G - 0.000036
0 46 - A 0.002709
0 46 - C -0.000017
0 46 - U -0.000037
0 46 - G -0.000031
0 46 - - 0.000015
0 47 A A -0.003868
0 47 A C -0.022275
0 47 A U -0.000003
0 47 A G 0.000028
0 47 A - -0.000030
0 47 C A 0.000453
0 47 C C -0.000037
0 47 C U -0.000031
0 47 C G 0.000049
0 47 C - 0.000034
0 47 U A 0.000030
0 47 U C 0.000011
0 47 U U 0.000003
0 47 U G -0.000029
0 47 U - 0.000049
0 47 G A -0.280640
0 47 G C 0.000057
0 47 G U 0.000004
0 47 G G -0.000024
0 47 G - 0.000017
0 47 - A 0.005126
0 47 - C 0.000055
0 47 - U -0.000029
0 47 - G -0.000027
0 47 - - -0.000010
1 1 A A 0.001241
1 1 C C -0.000019
1 1 U U -0.000036
1 1 G G -0.002253
1 1 - - 0.000675
1 2 A A 0.000014
1 2 A C 0.000034
1 2 A U 0.000014
1 2 A G 0.001307
1 2 A - 0.000014
1 2 C A 0.000032
1 2 C C 0.000014
1 2 C U 0.000014
1 2 C G -0.000041
1 2 C - 0.000014
1 2 U A 0.000033
1 2 U C 0.000028
1 2 U U 0.000014
1 2 U G 0.000055
1 2 U - 0.000014
1 2 G A 0.000040
1 2 G C 0.000045
1 2 G U -0.000031
1 2 G G -0.188589
1 2 G - 0.000001
1 2 - A 0.000014
1 2 - C 0.000014
1 2 - U 0.000014
1 2 - G 0.000721
1 2 - - 0.000014
1 3 A A -0.000008
1 3 A C 0.001283
1 3 A U -0.000043
1 3 A G -0.000008
1 3 A - -0.000008
1 3 C A -0.000008
1 3 C C -0.000017
1 3 C U 0.000047
1 3 C G 0.000008
1 3 C - 0.000026
1 3 U A 0.000010
1 3 U C 0.000019
1 3 U U 0.000002
1 3 U G 0.000006
1 3 U - -0.000008
1 3 G A 0.000241
1 3 G C -0.048142
1 3 G U -0.011389
1 3 G G 0.000155
1 3 G - 0.000034
1 3 - A 0.000007
1 3 - C 0.000766
1 3 - U -0.000008
1 3 - G -0.000008
1 3 - - -0.000008
1 4 A A -0.000041
1 4 A C 0.000864
1 4 A U 0.000044
1 4 A G 0.000009
1 4 A - 0.000209
1 4 C A -0.000040
1 4 C C 0.000044
1 4 C U 0.000044
1 4 C G 0.000016
1 4 C - -0.000036
1 4 U A -0.000041
1 4 U C -0.000026
1 4 U U 0.000044
1 4 U G -0.000022
1 4 U - 0.000026
1 4 G A 0.000035
1 4 G C 0.000030
1 4 G U 0.000419
1 4 G G -0.008692
1 4 G - -0.021956
1 4 - A 0.000044
1 4 - C 0.000044
1 4 - U 0.000044
1 4 - G -0.000006
1 4 - - 0.000697
1 5 A A -0.000001
1 5 A C -0.000009
1 5 A U -0.000001
1 5 A G 0.000017
1 5 A - 0.001236
1 5 C A 0.000018
1 5 C C -0.000042
1 5 C U -0.000001
1 5 C G -0.000001
1 5 C - -0.000015
1 5 U A 0.000019
1 5 U C 0.000039
1 5 U U -0.000001
1 5 U G -0.000001
1 5 U - 0.000009
1 5 G A -0.000002
1 5 G C -0.005817
1 5 G U 0.000051
1 5 G G 0.003739
1 5 G - -0.039791
1 5 - A 0.000027
1 5 - C -0.000036
1 5 - U 0.000015
1 5 - G -0.000001
1 5 - - 0.000735
1 6 A A 0.001324
1 6 A C -0.000017
1 6 A U 0.000000
1 6 A G -0.000017
1 6 A - 0.000002
1 6 C A -0.000013
1 6 C C -0.000017
1 6 C U -0.000017
1 6 C G -0.000017
1 6 C - 0.000013
1 6 U A -0.000027
1 6 U C -0.000005
1 6 U U -0.000003
1 6 U G 0.000001
1 6 U - -0.000017
1 6 G A -0.165524
1 6 G C -0.000003
1 6 G U 0.000033
1 6 G G -0.000043
1 6 G - 0.000006
1 6 - A 0.000749
1 6 - C -0.000017
1 6 - U -0.000000
1 6 - G -0.000017
1 6 - - -0.000017
1 7 A A -0.000019
1 7 A C -0.000032
1 7 A U 0.000917
1 7 A G 0.000247
1 7 A - -0.000032
1 7 C A -0.000032
1 7 C C -0.000032
1 7 C U -0.000034
1 7 C G 0.000042
1 7 C - -0.000032
1 7 U A -0.000010
1 7 U C -0.000032
1 7 U U 0.000049
1 7 U G 0.000031
1 7 U - -0.000032
1 7 G A 0.000042
1 7 G C 0.001682
1 7 G U -0.037227
1 7 G G -0.003639
1 7 G - 0.000004
1 7 - A -0.000032
1 7 - C -0.000032
1 7 - U 0.000712
1 7 - G 0.000011
1 7 - - -0.000014
1 8 A A 0.000006
1 8 A C 0.000026
1 8 A U 0.001300
1 8 A G 0.000006
1 8 A - 0.000006
1 8 C A 0.000006
1 8 C C 0.000026
1 8 C U 0.000049
1 8 C G 0.000006
1 8 C - 0.000020
1 8 U A 0.000020
1 8 U C 0.000006
1 8 U U 0.000052
1 8 U G 0.000006
1 8 U - 0.000006
1 8 G A 0.000035
1 8 G C 0.000047
1 8 G U -0.185622
1 8 G G 0.000023
1 8 G - 0.000074
1 8 - A 0.000006
1 8 - C 0.000026
1 8 - U 0.000771
1 8 - G 0.000006
1 8 - - 0.000006
1 9 A A -0.000016
1 9 A C -0.000016
1 9 A U 0.001305
1 9 A G -0.000016
1 9 A - -0.000016
1 9 C A -0.000016
1 9 C C -0.000016
1 9 C U 0.000025
1 9 C G -0.000016
1 9 C - 0.000002
1 9 U A -0.000002
1 9 U C -0.000016
1 9 U U 0.000024
1 9 U G 0.000001
1 9 U - -0.000016
1 9 G A 0.000167
1 9 G C 0.000049
1 9 G U -0.201792
1 9 G G 0.000939
1 9 G - -0.000040
1 9 - A -0.000016
1 9 - C -0.000016
1 9 - U 0.000797
1 9 - G -0.000016
1 9 - - -0.000016
1 10 A A -0.000005
1 10 A C 0.000031
1 10 A U 0.000031
1 10 A G 0.001254
1 10 A - 0.000031
1 10 C A 0.000047
1 10 C C -0.000049
1 10 C U 0.000031
1 10 C G 0.000011
1 10 C - -0.000033
1 10 U A -0.000030
1 10 U C -0.000034
1 10 U U -0.000022
1 10 U G 0.000044
1 10 U - 0.000047
1 10 G A 0.000622
1 10 G C -0.000005
1 10 G U 0.000031
1 10 G G -0.021501
1 10 G - -0.000088
1 10 - A 0.000031
1 10 - C 0.000031
1 10 - U 0.000041
1 10 - G 0.000730
1 10 - - 0.000031
1 11 A A 0.001388
1 11 A C 0.000054
1 11 A U 0.000018
1 11 A G 0.000018
1 11 A - 0.000018
1 11 C A 0.000049
1 11 C C 0.000052
1 11 C U 0.000018
1 11 C G 0.000018
1 11 C - 0.000018
1 11 U A 0.000048
1 11 U C 0.000018
1 11 U U 0.000031
1 11 U G 0.000037
1 11 U - 0.000018
1 11 G A -0.180987
1 11 G C 0.000491
1 11 G U 0.000003
1 11 G G 0.000674
1 11 G - -0.000039
1 11 - A 0.000708
1 11 - C 0.000018
1 11 - U 0.000018
1 11 - G 0.000018
1 11 - - 0.000018
1 12 A A 0.001407
1 12 A C 0.000012
1 12 A U 0.000012
1 12 A G 0.000012
1 12 A - 0.000032
1 12 C A -0.000010
1 12 C C 0.000012
1 12 C U 0.000012
1 12 C G 0.000012
1 12 C - 0.000012
1 12 U A -0.000023
1 12 U C 0.000012
1 12 U U 0.000025
1 12 U G 0.000012
1 12 U - 0.000012
1 12 G A -0.210028
1 12 G C 0.000048
1 12 G U 0.000018
1 12 G G -0.000012
1 12 G - 0.000011
1 12 - A 0.000746
1 12 - C 0.000032
1 12 - U 0.000012
1 12 - G 0.000012
1 12 - - 0.000032
1 13 A A 0.000037
1 13 A C 0.001357
1 13 A U 0.000037
1 13 A G 0.000037
1 13 A - 0.000037
1 13 C A 0.000037
1 13 C C 0.000024
1 13 C U 0.000037
1 13 C G 0.000037
1 13 C - 0.000037
1 13 U A 0.000037
1 13 U C -0.000004
1 13 U U 0.000037
1 13 U G 0.000037
1 13 U - 0.000058
1 13 G A 0.000028
1 13 G C -0.213615
1 13 G U 0.000025
1 13 G G 0.000017
1 13 G - -0.000011
1 13 - A 0.000037
1 13 - C 0.000778
1 13 - U 0.000037
1 13 - G 0.000037
1 13 - - 0.000037
1 14 A A -0.000037
1 14 A C 0.001231
1 14 A U 0.000018
1 14 A G 0.000019
1 14 A - -0.000037
1 14 C A -0.000019
1 14 C C -0.000035
1 14 C U 0.000051
1 14 C G -0.000037
1 14 C - -0.000037
1 14 U A -0.000019
1 14 U C 0.000003
1 14 U U -0.000001
1 14 U G 0.000007
1 14 U - -0.000037
1 14 G A 0.000884
1 14 G C -0.006238
1 14 G U -0.089143
1 14 G G 0.000964
1 14 G - 0.000023
1 14 - A -0.000037
1 14 - C 0.000013
1 14 - U 0.000708
1 14 - G -0.000037
1 14 - - -0.000018
1 15 A A 0.001242
1 15 A C 0.000036
1 15 A U 0.000017
1 15 A G 0.000029
1 15 A - 0.000017
1 15 C A 0.000034
1 15 C C 0.000017
1 15 C U 0.000034
1 15 C G -0.000039
1 15 C - 0.000033
1 15 U A -0.000014
1 15 U C 0.000017
1 15 U U 0.000024
1 15 U G 0.000044
1 15 U - 0.000037
1 15 G A -0.058163
1 15 G C -0.000002
1 15 G U 0.000168
1 15 G G -0.004485
1 15 G - 0.000029
1 15 - A -0.000046
1 15 - C 0.000035
1 15 - U 0.000017
1 15 - G 0.000759
1 15 - - 0.000017
1 16 A A 0.000028
1 16 A C 0.000001
1 16 A U 0.001229
1 16 A G 0.000001
1 16 A - 0.000001
1 16 C A 0.000033
1 16 C C 0.000018
1 16 C U 0.000046
1 16 C G 0.000001
1 16 C - 0.000001
1 16 U A 0.000019
1 16 U C 0.000018
1 16 U U 0.000016
1 16 U G 0.000001
1 16 U - 0.000001
1 16 G A -0.017231
1 16 G C 0.000023
1 16 G U -0.016415
1 16 G G 0.000026
1 16 G - 0.000404
1 16 - A 0.000017
1 16 - C 0.000001
1 16 - U 0.000752
1 16 - G 0.000018
1 16 - - 0.000001
1 17 A A 0.001236
1 17 A C 0.000051
1 17 A U 0.000016
1 17 A G 0.000031
1 17 A - 0.000016
1 17 C A 0.000020
1 17 C C 0.000034
1 17 C U 0.000016
1 17 C G 0.000016
1 17 C - 0.000016
1 17 U A -0.000046
1 17 U C 0.000047
1 17 U U 0.000035
1 17 U G 0.000016
1 17 U - 0.000034
1 17 G A -0.075396
1 17 G C -0.000061
1 17 G U 0.001066
1 17 G G 0.000601
1 17 G - 0.000371
1 17 - A 0.000704
1 17 - C 0.000032
1 17 - U 0.000036
1 17 - G 0.000016
1 17 - - 0.000016
1 18 A A 0.000023
1 18 A C 0.000006
1 18 A U 0.001383
1 18 A G 0.000006
1 18 A - 0.000006
1 18 C A 0.000006
1 18 C C 0.000006
1 18 C U -0.000014
1 18 C G 0.000006
1 18 C - 0.000006
1 18 U A 0.000006
1 18 U C 0.000006
1 18 U U 0.000044
1 18 U G 0.000026
1 18 U - 0.000021
1 18 G A -0.000036
1 18 G C -0.000039
1 18 G U -0.199061
1 18 G G 0.000041
1 18 G - -0.000031
1 18 - A 0.000006
1 18 - C 0.000024
1 18 - U 0.000718
1 18 - G 0.000006
1 18 - - 0.000006
1 19 A A -0.000038
1 19 A C 0.000043
1 19 A U 0.001401
1 19 A G 0.000043
1 19 A - -0.000039
1 19 C A 0.000043
1 19 C C 0.000043
1 19 C U 0.000022
1 19 C G 0.000043
1 19 C - 0.000043
1 19 U A 0.000043
1 19 U C 0.000043
1 19 U U -0.000036
1 19 U G -0.000024
1 19 U - 0.000043
1 19 G A -0.000023
1 19 G C -0.000008
1 19 G U -0.201680
1 19 G G 0.000009
1 19 G - 0.000800
1 19 - A 0.000043
1 19 - C 0.000043
1 19 - U 0.000732
1 19 - G 0.000043
1 19 - - 0.000043
1 20 A A -0.000027
1 20 A C -0.000027
1 20 A U -0.000027
1 20 A G 0.001392
1 20 A - -0.000027
1 20 C A -0.000027
1 20 C C -0.000027
1 20 C U -0.000009
1 20 C G 0.000038
1 20 C - -0.000027
1 20 U A -0.000027
1 20 U C -0.000011
1 20 U U -0.000027