# NB_STEPS 3000
# UP_FREQ 1000
# TEMP 1.000000
# LAMBDA 0.050000
# ID_THRES 1.000000
# ALPHA 1.000000
0 0 A A -0.002521
0 0 C C -0.000731
0 0 U U 0.005637
0 0 G G -0.008108
0 0 - - 0.005296
0 1 A A -0.000013
0 1 A C -0.009233
0 1 A U 0.001522
0 1 A G -0.198156
0 1 A - 0.011031
0 1 C A 0.000014
0 1 C C -0.000051
0 1 C U 0.000046
0 1 C G -0.000031
0 1 C - 0.000021
0 1 U A -0.000039
0 1 U C 0.003721
0 1 U U -0.000038
0 1 U G 0.000561
0 1 U - -0.000022
0 1 G A -0.000006
0 1 G C -0.006260
0 1 G U -0.000002
0 1 G G 0.000002
0 1 G - -0.000028
0 1 - A 0.000052
0 1 - C 0.002435
0 1 - U -0.000034
0 1 - G 0.001057
0 1 - - 0.000004
0 2 A A -0.003248
0 2 A C -0.000234
0 2 A U -0.003760
0 2 A G 0.002777
0 2 A - -0.000046
0 2 C A -0.000045
0 2 C C 0.000020
0 2 C U -0.000069
0 2 C G -0.000044
0 2 C - 0.000003
0 2 U A -0.000028
0 2 U C -0.000008
0 2 U U 0.014628
0 2 U G 0.000281
0 2 U - 0.000046
0 2 G A 0.000002
0 2 G C 0.000019
0 2 G U -0.036636
0 2 G G 0.000025
0 2 G - -0.000023
0 2 - A 0.000040
0 2 - C 0.000719
0 2 - U 0.003301
0 2 - G 0.000019
0 2 - - 0.000032
0 3 A A -0.000017
0 3 A C -0.026542
0 3 A U 0.002456
0 3 A G -0.006979
0 3 A - 0.001882
0 3 C A -0.000006
0 3 C C -0.000159
0 3 C U -0.000008
0 3 C G -0.000008
0 3 C - 0.000006
0 3 U A 0.000051
0 3 U C 0.010247
0 3 U U -0.000001
0 3 U G 0.000004
0 3 U - 0.000044
0 3 G A -0.000002
0 3 G C -0.013145
0 3 G U -0.000031
0 3 G G -0.000032
0 3 G - -0.000019
0 3 - A 0.000032
0 3 - C 0.001339
0 3 - U 0.000817
0 3 - G 0.001721
0 3 - - 0.000034
0 4 A A -0.000014
0 4 A C 0.000009
0 4 A U 0.000528
0 4 A G -0.054366
0 4 A - -0.000026
0 4 C A 0.000015
0 4 C C 0.000029
0 4 C U 0.000034
0 4 C G -0.000666
0 4 C - 0.000018
0 4 U A -0.000033
0 4 U C 0.000032
0 4 U U 0.000018
0 4 U G 0.005870
0 4 U - 0.000032
0 4 G A 0.000049
0 4 G C 0.000018
0 4 G U -0.000016
0 4 G G -0.010048
0 4 G - 0.000034
0 4 - A 0.000034
0 4 - C 0.000018
0 4 - U 0.000018
0 4 - G 0.005480
0 4 - - -0.000000
0 5 A A -0.018395
0 5 A C 0.000000
0 5 A U -0.002466
0 5 A G 0.000388
0 5 A - 0.000901
0 5 C A -0.000006
0 5 C C 0.000025
0 5 C U -0.000698
0 5 C G -0.000016
0 5 C - -0.000013
0 5 U A -0.000033
0 5 U C -0.000003
0 5 U U 0.001019
0 5 U G -0.000041
0 5 U - 0.000016
0 5 G A -0.000048
0 5 G C 0.000031
0 5 G U -0.004438
0 5 G G 0.000023
0 5 G - 0.000016
0 5 - A 0.000850
0 5 - C -0.000046
0 5 - U 0.003008
0 5 - G -0.000016
0 5 - - 0.000013
0 6 A A 0.000601
0 6 A C -0.000214
0 6 A U -0.078372
0 6 A G 0.000881
0 6 A - -0.000013
0 6 C A 0.000027
0 6 C C -0.000030
0 6 C U 0.000012
0 6 C G -0.000058
0 6 C - 0.000046
0 6 U A 0.000048
0 6 U C 0.000669
0 6 U U -0.000023
0 6 U G 0.000031
0 6 U - 0.000012
0 6 G A 0.000048
0 6 G C -0.018804
0 6 G U 0.000034
0 6 G G -0.000003
0 6 G - -0.000013
0 6 - A -0.000001
0 6 - C 0.003510
0 6 - U 0.000011
0 6 - G -0.000019
0 6 - - -0.000021
0 7 A A -0.001030
0 7 A C -0.000091
0 7 A U 0.000172
0 7 A G 0.000360
0 7 A - 0.000687
0 7 C A -0.000016
0 7 C C -0.000050
0 7 C U -0.000062
0 7 C G -0.000074
0 7 C - -0.000022
0 7 U A -0.000038
0 7 U C 0.000027
0 7 U U 0.000484
0 7 U G -0.000052
0 7 U - -0.000017
0 7 G A 0.000013
0 7 G C -0.000027
0 7 G U -0.006455
0 7 G G 0.000034
0 7 G - -0.000038
0 7 - A 0.000897
0 7 - C 0.000038
0 7 - U 0.002353
0 7 - G 0.000000
0 7 - - 0.000012
0 8 A A -0.009072
0 8 A C -0.000126
0 8 A U -0.000047
0 8 A G -0.001489
0 8 A - 0.000987
0 8 C A 0.000020
0 8 C C 0.000005
0 8 C U 0.000030
0 8 C G -0.000031
0 8 C - 0.000040
0 8 U A -0.000041
0 8 U C 0.000007
0 8 U U -0.000044
0 8 U G 0.000018
0 8 U - 0.000510
0 8 G A 0.000001
0 8 G C -0.000050
0 8 G U -0.000005
0 8 G G -0.000569
0 8 G - -0.000028
0 8 - A 0.000791
0 8 - C -0.000028
0 8 - U 0.000860
0 8 - G 0.000992
0 8 - - 0.000739
0 9 A A -0.318517
0 9 A C -0.000020
0 9 A U 0.000759
0 9 A G 0.002380
0 9 A - 0.006589
0 9 C A 0.000025
0 9 C C -0.000010
0 9 C U -0.000021
0 9 C G -0.000080
0 9 C - 0.000062
0 9 U A 0.000342
0 9 U C 0.000010
0 9 U U -0.000001
0 9 U G 0.000432
0 9 U - 0.000052
0 9 G A 0.000042
0 9 G C 0.000046
0 9 G U -0.000023
0 9 G G -0.060605
0 9 G - -0.000005
0 9 - A 0.001061
0 9 - C 0.000935
0 9 - U 0.000032
0 9 - G 0.001820
0 9 - - -0.000011
0 10 A A -0.028567
0 10 A C 0.002104
0 10 A U 0.001323
0 10 A G -0.008175
0 10 A - 0.000746
0 10 C A -0.000027
0 10 C C -0.000049
0 10 C U -0.000018
0 10 C G -0.000642
0 10 C - 0.000049
0 10 U A 0.000011
0 10 U C -0.000045
0 10 U U -0.000008
0 10 U G 0.002770
0 10 U - 0.000046
0 10 G A -0.000047
0 10 G C -0.000001
0 10 G U 0.000021
0 10 G G -0.006923
0 10 G - 0.000050
0 10 - A -0.000019
0 10 - C 0.000048
0 10 - U 0.000048
0 10 - G 0.005401
0 10 - - 0.000016
0 11 A A 0.000423
0 11 A C -0.032399
0 11 A U -0.000011
0 11 A G 0.000035
0 11 A - 0.000017
0 11 C A 0.000015
0 11 C C -0.000670
0 11 C U -0.000027
0 11 C G -0.000032
0 11 C - -0.000046
0 11 U A 0.000049
0 11 U C 0.004113
0 11 U U 0.000022
0 11 U G -0.000023
0 11 U - -0.000030
0 11 G A -0.000019
0 11 G C -0.015708
0 11 G U -0.000002
0 11 G G 0.000032
0 11 G - 0.000031
0 11 - A -0.000032
0 11 - C 0.004419
0 11 - U 0.000031
0 11 - G -0.000035
0 11 - - -0.000014
0 12 A A 0.000987
0 12 A C -0.009498
0 12 A U 0.000031
0 12 A G -0.020575
0 12 A - -0.000046
0 12 C A 0.000008
0 12 C C -0.000058
0 12 C U -0.000006
0 12 C G -0.000149
0 12 C - 0.000026
0 12 U A -0.000055
0 12 U C 0.000007
0 12 U U 0.000034
0 12 U G 0.011292
0 12 U - -0.000010
0 12 G A 0.000029
0 12 G C -0.000003
0 12 G U -0.000024
0 12 G G -0.017733
0 12 G - 0.000043
0 12 - A -0.000015
0 12 - C 0.000746
0 12 - U 0.000037
0 12 - G 0.004375
0 12 - - 0.000006
0 13 A A -0.006947
0 13 A C 0.002115
0 13 A U -0.060046
0 13 A G 0.000583
0 13 A - 0.003558
0 13 C A 0.000004
0 13 C C 0.000006
0 13 C U -0.000014
0 13 C G 0.000005
0 13 C - -0.000028
0 13 U A 0.018741
0 13 U C -0.000014
0 13 U U -0.000031
0 13 U G -0.000017
0 13 U - 0.000006
0 13 G A -0.030214
0 13 G C 0.000046
0 13 G U 0.000038
0 13 G G -0.000033
0 13 G - -0.000029
0 13 - A 0.005648
0 13 - C 0.000052
0 13 - U 0.000023
0 13 - G -0.000026
0 13 - - -0.000010
0 14 A A 0.015769
0 14 A C -0.175180
0 14 A U -0.000063
0 14 A G -0.010349
0 14 A - 0.001718
0 14 C A 0.000055
0 14 C C -0.000038
0 14 C U 0.000017
0 14 C G -0.000001
0 14 C - 0.000042
0 14 U A 0.000051
0 14 U C 0.000500
0 14 U U -0.000049
0 14 U G 0.003500
0 14 U - 0.000034
0 14 G A 0.000028
0 14 G C -0.000009
0 14 G U 0.000018
0 14 G G -0.006761
0 14 G - 0.000047
0 14 - A -0.000020
0 14 - C 0.000797
0 14 - U 0.000045
0 14 - G 0.001851
0 14 - - -0.000003
0 15 A A 0.000923
0 15 A C 0.107263
0 15 A U -1.179627
0 15 A G 0.414229
0 15 A - 0.065475
0 15 C A 0.000014
0 15 C C 0.000030
0 15 C U 0.007732
0 15 C G -0.000016
0 15 C - 0.000071
0 15 U A 0.000069
0 15 U C 0.000004
0 15 U U -0.000001
0 15 U G 0.003262
0 15 U - -0.000003
0 15 G A -0.000022
0 15 G C -0.000004
0 15 G U -0.000039
0 15 G G -0.000087
0 15 G - 0.001063
0 15 - A 0.000943
0 15 - C -0.000024
0 15 - U 0.000925
0 15 - G 0.003682
0 15 - - 0.000017
0 16 A A -0.582662
0 16 A C -0.000657
0 16 A U 0.000064
0 16 A G 0.131630
0 16 A - 0.066159
0 16 C A 0.000002
0 16 C C -0.000004
0 16 C U -0.000184
0 16 C G -0.000011
0 16 C - 0.000015
0 16 U A -0.000033
0 16 U C 0.000650
0 16 U U 0.000062
0 16 U G 0.000026
0 16 U - -0.000015
0 16 G A -0.000026
0 16 G C -0.000019
0 16 G U 0.000291
0 16 G G -0.000143
0 16 G - 0.000240
0 16 - A 0.001842
0 16 - C 0.000003
0 16 - U 0.000381
0 16 - G 0.001161
0 16 - - 0.000062
0 17 A A 0.001588
0 17 A C 0.000402
0 17 A U -0.512939
0 17 A G 0.003336
0 17 A - 0.000574
0 17 C A 0.000006
0 17 C C 0.000017
0 17 C U -0.000028
0 17 C G 0.000026
0 17 C - -0.000022
0 17 U A 0.000018
0 17 U C 0.000011
0 17 U U 0.054202
0 17 U G 0.000649
0 17 U - 0.000061
0 17 G A -0.000018
0 17 G C 0.000025
0 17 G U -0.000525
0 17 G G -0.000016
0 17 G - -0.000026
0 17 - A -0.000023
0 17 - C 0.000064
0 17 - U 0.015815
0 17 - G 0.000047
0 17 - - -0.000020
0 18 A A -0.029921
0 18 A C -0.000037
0 18 A U 0.000038
0 18 A G -0.000001
0 18 A - -0.000024
0 18 C A -0.000665
0 18 C C -0.000018
0 18 C U -0.000041
0 18 C G -0.000025
0 18 C - -0.000032
0 18 U A 0.004314
0 18 U C 0.000039
0 18 U U 0.000039
0 18 U G -0.000043
0 18 U - -0.000044
0 18 G A -0.012043
0 18 G C -0.000044
0 18 G U 0.000023
0 18 G G -0.000031
0 18 G - -0.000018
0 18 - A 0.005409
0 18 - C -0.000037
0 18 - U -0.000021
0 18 - G 0.000035
0 18 - - -0.000037
0 19 A A -0.044071
0 19 A C 0.000035
0 19 A U -0.000040
0 19 A G 0.000001
0 19 A - 0.000005
0 19 C A -0.000608
0 19 C C -0.000014
0 19 C U 0.000006
0 19 C G -0.000014
0 19 C - 0.000052
0 19 U A 0.004012
0 19 U C 0.000007
0 19 U U 0.000041
0 19 U G 0.000027
0 19 U - -0.000041
0 19 G A -0.009657
0 19 G C -0.000014
0 19 G U 0.000007
0 19 G G -0.000014
0 19 G - 0.000019
0 19 - A 0.005164
0 19 - C -0.000014
0 19 - U -0.000014
0 19 - G 0.000035
0 19 - - 0.000024
0 20 A A -0.075873
0 20 A C -0.000031
0 20 A U 0.000151
0 20 A G 0.000029
0 20 A - 0.000394
0 20 C A -0.000557
0 20 C C -0.000012
0 20 C U 0.000007
0 20 C G -0.000010
0 20 C - 0.000040
0 20 U A 0.025833
0 20 U C 0.000050
0 20 U U -0.000021
0 20 U G -0.000015
0 20 U - 0.000007
0 20 G A -0.016073
0 20 G C 0.000039
0 20 G U -0.000043
0 20 G G 0.000038
0 20 G - -0.000038
0 20 - A 0.005067
0 20 - C -0.000046
0 20 - U -0.000010
0 20 - G 0.000004
0 20 - - 0.000813
0 21 A A -0.009751
0 21 A C -0.000243
0 21 A U -0.040710
0 21 A G 0.005947
0 21 A - 0.000827
0 21 C A 0.000049
0 21 C C -0.000023
0 21 C U -0.000078
0 21 C G -0.000012
0 21 C - 0.000020
0 21 U A -0.000013
0 21 U C 0.000039
0 21 U U 0.000482
0 21 U G -0.000034
0 21 U - -0.000055
0 21 G A 0.000018
0 21 G C -0.000075
0 21 G U -0.000232
0 21 G G 0.000017
0 21 G - 0.000026
0 21 - A 0.000034
0 21 - C 0.001819
0 21 - U 0.003052
0 21 - G 0.000035
0 21 - - 0.000046
0 22 A A -0.063992
0 22 A C 0.000064
0 22 A U 0.000029
0 22 A G 0.000942
0 22 A - -0.000025
0 22 C A -0.000649
0 22 C C -0.000024
0 22 C U 0.000048
0 22 C G -0.000016
0 22 C - 0.000017
0 22 U A 0.019486
0 22 U C -0.000041
0 22 U U -0.000024
0 22 U G 0.000013
0 22 U - 0.000012
0 22 G A -0.016656
0 22 G C 0.000010
0 22 G U 0.000023
0 22 G G 0.000008
0 22 G - 0.000015
0 22 - A 0.005562
0 22 - C -0.000004
0 22 - U -0.000040
0 22 - G -0.000042
0 22 - - 0.000011
0 23 A A 0.000040
0 23 A C -0.000004
0 23 A U 0.000140
0 23 A G -0.000951
0 23 A - -0.011422
0 23 C A 0.000040
0 23 C C 0.000001
0 23 C U 0.000009
0 23 C G -0.000052
0 23 C - -0.000221
0 23 U A 0.000036
0 23 U C 0.000049
0 23 U U -0.000015
0 23 U G 0.000039
0 23 U - 0.001571
0 23 G A -0.000031
0 23 G C 0.000040
0 23 G U -0.000016
0 23 G G -0.000001
0 23 G - -0.000770
0 23 - A 0.000025
0 23 - C -0.000046
0 23 - U -0.000031
0 23 - G 0.001773
0 23 - - 0.002404
0 24 A A -0.000051
0 24 A C 0.001166
0 24 A U -0.000047
0 24 A G -0.125327
0 24 A - 0.000162
0 24 C A -0.000037
0 24 C C -0.000036
0 24 C U -0.000017
0 24 C G 0.000024
0 24 C - -0.000038
0 24 U A -0.000027
0 24 U C -0.000021
0 24 U U 0.000002
0 24 U G 0.012410
0 24 U - -0.000043
0 24 G A -0.000045
0 24 G C 0.000007
0 24 G U 0.000001
0 24 G G -0.000946
0 24 G - 0.000005
0 24 - A 0.000021
0 24 - C -0.000033
0 24 - U 0.000028
0 24 - G 0.003595
0 24 - - 0.000003
0 25 A A 0.002565
0 25 A C 0.000868
0 25 A U -0.000908
0 25 A G -0.310335
0 25 A - 0.011535
0 25 C A -0.000042
0 25 C C -0.000048
0 25 C U -0.000020
0 25 C G 0.000010
0 25 C - 0.000053
0 25 U A 0.000046
0 25 U C 0.000462
0 25 U U 0.000279
0 25 U G -0.000030
0 25 U - 0.000059
0 25 G A 0.000367
0 25 G C -0.000032
0 25 G U -0.000036
0 25 G G -0.000069
0 25 G - -0.000027
0 25 - A 0.002001
0 25 - C -0.000012
0 25 - U 0.000005
0 25 - G 0.000913
0 25 - - 0.000032
0 26 A A -0.000463
0 26 A C -0.050082
0 26 A U -0.051734
0 26 A G 0.006441
0 26 A - 0.003890
0 26 C A -0.000031
0 26 C C -0.000020
0 26 C U 0.000040
0 26 C G -0.000016
0 26 C - 0.000004
0 26 U A -0.000026
0 26 U C 0.001004
0 26 U U 0.000031
0 26 U G 0.000014
0 26 U - -0.000012
0 26 G A -0.000038
0 26 G C -0.000073
0 26 G U 0.000026
0 26 G G -0.000022
0 26 G - -0.000029
0 26 - A 0.000826
0 26 - C 0.002506
0 26 - U -0.000014
0 26 - G -0.000026
0 26 - - 0.000052
0 27 A A 0.010734
0 27 A C 0.000315
0 27 A U -0.365379
0 27 A G 0.000078
0 27 A - 0.041104
0 27 C A -0.000008
0 27 C C -0.000047
0 27 C U 0.000045
0 27 C G -0.000022
0 27 C - 0.000061
0 27 U A 0.000538
0 27 U C 0.000064
0 27 U U 0.000045
0 27 U G -0.000006
0 27 U - 0.000059
0 27 G A -0.077954
0 27 G C 0.000024
0 27 G U 0.000054
0 27 G G -0.000013
0 27 G - -0.000030
0 27 - A 0.002820
0 27 - C 0.000139
0 27 - U 0.001382
0 27 - G 0.000060
0 27 - - 0.000038
0 28 A A -0.000063
0 28 A C 0.000005
0 28 A U -0.035272
0 28 A G 0.000006
0 28 A - -0.000042
0 28 C A -0.000011
0 28 C C -0.000055
0 28 C U -0.000055
0 28 C G -0.000047
0 28 C - 0.000004
0 28 U A -0.000016
0 28 U C 0.000050
0 28 U U 0.001763
0 28 U G 0.000005
0 28 U - -0.000014
0 28 G A 0.000035
0 28 G C 0.000001
0 28 G U -0.016946
0 28 G G -0.000032
0 28 G - 0.000017
0 28 - A 0.000023
0 28 - C -0.000030
0 28 - U 0.004442
0 28 - G 0.000021
0 28 - - -0.000046
0 29 A A 0.000033
0 29 A C -0.000086
0 29 A U -0.008386
0 29 A G -0.000038
0 29 A - 0.000047
0 29 C A 0.000032
0 29 C C -0.000019
0 29 C U -0.000725
0 29 C G 0.000032
0 29 C - 0.000030
0 29 U A 0.000018
0 29 U C 0.000050
0 29 U U 0.003929
0 29 U G 0.000009
0 29 U - -0.000043
0 29 G A 0.000011
0 29 G C 0.000044
0 29 G U -0.018099
0 29 G G -0.000048
0 29 G - -0.000043
0 29 - A 0.000001
0 29 - C 0.000018
0 29 - U 0.004980
0 29 - G -0.000020
0 29 - - 0.000018
0 30 A A -0.019393
0 30 A C 0.000027
0 30 A U 0.000011
0 30 A G 0.000003
0 30 A - 0.000004
0 30 C A -0.000640
0 30 C C 0.000025
0 30 C U -0.000032
0 30 C G 0.000039
0 30 C - -0.000016
0 30 U A 0.001778
0 30 U C 0.000041
0 30 U U -0.000005
0 30 U G -0.000030
0 30 U - 0.000497
0 30 G A -0.017280
0 30 G C -0.000031
0 30 G U -0.000022
0 30 G G -0.000017
0 30 G - -0.000012
0 30 - A 0.004055
0 30 - C -0.000016
0 30 - U -0.000016
0 30 - G -0.000049
0 30 - - 0.000042
0 31 A A 0.000549
0 31 A C 0.000049
0 31 A U 0.000048
0 31 A G -0.034461
0 31 A - 0.000834
0 31 C A -0.000029
0 31 C C 0.000030
0 31 C U 0.000048
0 31 C G -0.000056
0 31 C - 0.000024
0 31 U A -0.000022
0 31 U C 0.000523
0 31 U U -0.000025
0 31 U G -0.000042
0 31 U - -0.000017
0 31 G A -0.000128
0 31 G C 0.000042
0 31 G U -0.000019
0 31 G G -0.000510
0 31 G - 0.000033
0 31 - A 0.001796
0 31 - C -0.000009
0 31 - U 0.000029
0 31 - G 0.003012
0 31 - - 0.000014
0 32 A A -0.000041
0 32 A C 0.000611
0 32 A U 0.000032
0 32 A G -0.035168
0 32 A - -0.000027
0 32 C A 0.000017
0 32 C C 0.000016
0 32 C U 0.000016
0 32 C G -0.000660
0 32 C - -0.000004
0 32 U A 0.000017
0 32 U C -0.000017
0 32 U U -0.000017
0 32 U G 0.003144
0 32 U - 0.000023
0 32 G A -0.000028
0 32 G C 0.000022
0 32 G U -0.000000
0 32 G G -0.015884
0 32 G - -0.000043
0 32 - A -0.000017
0 32 - C -0.000017
0 32 - U -0.000017
0 32 - G 0.005929
0 32 - - -0.000000
0 33 A A -0.000028
0 33 A C -0.010436
0 33 A U -0.004752
0 33 A G -0.000008
0 33 A - 0.000932
0 33 C A -0.000035
0 33 C C -0.000688
0 33 C U -0.000032
0 33 C G 0.000026
0 33 C - -0.000038
0 33 U A -0.000018
0 33 U C 0.001514
0 33 U U -0.000009
0 33 U G -0.000025
0 33 U - -0.000045
0 33 G A 0.000040
0 33 G C -0.006024
0 33 G U -0.000013
0 33 G G -0.000035
0 33 G - 0.000045
0 33 - A -0.000028
0 33 - C 0.005299
0 33 - U 0.000002
0 33 - G 0.000014
0 33 - - -0.000012
0 34 A A 0.004166
0 34 A C 0.002498
0 34 A U -0.372541
0 34 A G -0.000083
0 34 A - 0.008869
0 34 C A -0.000020
0 34 C C -0.000040
0 34 C U -0.000043
0 34 C G 0.000046
0 34 C - 0.000045
0 34 U A -0.000005
0 34 U C 0.000520
0 34 U U 0.002641
0 34 U G 0.000019
0 34 U - -0.000028
0 34 G A 0.000002
0 34 G C -0.048574
0 34 G U -0.000018
0 34 G G -0.000016
0 34 G - 0.000006
0 34 - A 0.000015
0 34 - C 0.001953
0 34 - U 0.002227
0 34 - G 0.000030
0 34 - - 0.000047
0 35 A A 0.000935
0 35 A C -0.006099
0 35 A U -0.010603
0 35 A G 0.000786
0 35 A - -0.000041
0 35 C A 0.000045
0 35 C C -0.000064
0 35 C U -0.000004
0 35 C G -0.000034
0 35 C - -0.000027
0 35 U A 0.000003
0 35 U C 0.000467
0 35 U U 0.000048
0 35 U G -0.000020
0 35 U - -0.000003
0 35 G A 0.000024
0 35 G C -0.000824
0 35 G U 0.000037
0 35 G G -0.000059
0 35 G - -0.000001
0 35 - A -0.000040
0 35 - C 0.002336
0 35 - U 0.000776
0 35 - G 0.000012
0 35 - - -0.000024
0 36 A A 0.000465
0 36 A C 0.000589
0 36 A U -0.001546
0 36 A G -0.000512
0 36 A - 0.001029
0 36 C A 0.000000
0 36 C C -0.000002
0 36 C U -0.000059
0 36 C G 0.000022
0 36 C - -0.000022
0 36 U A 0.000465
0 36 U C -0.000012
0 36 U U 0.000009
0 36 U G -0.000043
0 36 U - 0.000043
0 36 G A -0.008541
0 36 G C -0.000074
0 36 G U 0.000007
0 36 G G 0.000001
0 36 G - 0.000043
0 36 - A 0.002721
0 36 - C -0.000047
0 36 - U 0.000001
0 36 - G 0.000009
0 36 - - 0.000017
0 37 A A -0.013842
0 37 A C -0.001021
0 37 A U 0.000970
0 37 A G 0.001792
0 37 A - 0.000349
0 37 C A -0.000060
0 37 C C 0.000007
0 37 C U -0.000012
0 37 C G -0.000071
0 37 C - -0.000044
0 37 U A -0.000008
0 37 U C 0.000007
0 37 U U 0.000518
0 37 U G 0.000007
0 37 U - -0.000044
0 37 G A -0.000031
0 37 G C 0.000040
0 37 G U -0.000034
0 37 G G -0.044584
0 37 G - 0.000038
0 37 - A 0.000024
0 37 - C 0.000824
0 37 - U 0.000806
0 37 - G 0.001362
0 37 - - 0.000020
0 38 A A -0.003723
0 38 A C 0.000001
0 38 A U -0.007896
0 38 A G 0.000785
0 38 A - -0.000037
0 38 C A -0.000664
0 38 C C 0.000007
0 38 C U -0.000049
0 38 C G 0.000038
0 38 C - -0.000025
0 38 U A 0.002050
0 38 U C 0.000012
0 38 U U 0.000027
0 38 U G -0.000010
0 38 U - -0.000047
0 38 G A -0.001181
0 38 G C 0.000002
0 38 G U -0.000046
0 38 G G 0.000049
0 38 G - -0.000033
0 38 - A 0.003976
0 38 - C 0.000002
0 38 - U 0.000779
0 38 - G -0.000005
0 38 - - 0.000031
0 39 A A -0.000026
0 39 A C 0.000034
0 39 A U 0.000177
0 39 A G -0.032294
0 39 A - -0.000038
0 39 C A 0.000041
0 39 C C 0.000033
0 39 C U 0.000033
0 39 C G -0.000614
0 39 C - 0.000024
0 39 U A 0.000039
0 39 U C 0.000044
0 39 U U 0.000008
0 39 U G 0.002877
0 39 U - 0.000008
0 39 G A 0.000024
0 39 G C 0.000039
0 39 G U -0.000023
0 39 G G -0.015506
0 39 G - 0.000031
0 39 - A 0.000008
0 39 - C 0.000034
0 39 - U 0.000043
0 39 - G 0.005108
0 39 - - 0.000008
0 40 A A 0.000521
0 40 A C -0.083848
0 40 A U -0.000036
0 40 A G -0.000011
0 40 A - -0.000049
0 40 C A -0.000007
0 40 C C -0.000604
0 40 C U 0.000024
0 40 C G 0.000041
0 40 C - 0.000024
0 40 U A 0.000041
0 40 U C 0.003683
0 40 U U 0.000042
0 40 U G -0.000046
0 40 U - 0.000042
0 40 G A -0.000016
0 40 G C -0.001237
0 40 G U 0.000039
0 40 G G 0.000035
0 40 G - -0.000042
0 40 - A 0.000023
0 40 - C 0.005615
0 40 - U 0.000042
0 40 - G 0.000023
0 40 - - 0.000037
0 41 A A -0.000059
0 41 A C 0.000472
0 41 A U 0.000859
0 41 A G -0.019965
0 41 A - 0.000019
0 41 C A 0.000032
0 41 C C 0.000018
0 41 C U -0.000007
0 41 C G -0.000670
0 41 C - 0.000039
0 41 U A -0.000013
0 41 U C 0.000021
0 41 U U -0.000022
0 41 U G 0.005314
0 41 U - 0.000006
0 41 G A 0.000029
0 41 G C -0.000016
0 41 G U -0.000036
0 41 G G -0.019679
0 41 G - -0.000020
0 41 - A -0.000008
0 41 - C -0.000001
0 41 - U 0.000814
0 41 - G 0.004404
0 41 - - 0.000013
0 42 A A 0.001202
0 42 A C -0.000014
0 42 A U -0.005347
0 42 A G -0.002016
0 42 A - 0.000002
0 42 C A 0.000042
0 42 C C -0.000002
0 42 C U -0.000146
0 42 C G -0.000043
0 42 C - 0.000032
0 42 U A 0.000038
0 42 U C -0.000033
0 42 U U 0.001200
0 42 U G 0.000007
0 42 U - -0.000040
0 42 G A -0.000002
0 42 G C -0.000032
0 42 G U -0.019055
0 42 G G 0.000033
0 42 G - 0.000017
0 42 - A 0.000038
0 42 - C -0.000027
0 42 - U 0.002880
0 42 - G 0.000033
0 42 - - -0.000007
0 43 A A 0.001124
0 43 A C -0.006398
0 43 A U -0.016734
0 43 A G 0.000534
0 43 A - 0.003291
0 43 C A 0.000040
0 43 C C 0.000001
0 43 C U -0.000027
0 43 C G 0.000021
0 43 C - 0.000033
0 43 U A -0.000017
0 43 U C 0.000521
0 43 U U 0.000027
0 43 U G -0.000024
0 43 U - -0.000042
0 43 G A 0.000027
0 43 G C -0.000860
0 43 G U -0.000104
0 43 G G 0.000000
0 43 G - 0.000039
0 43 - A 0.000026
0 43 - C 0.000037
0 43 - U 0.001800
0 43 - G 0.000897
0 43 - - -0.000026
0 44 A A 0.001338
0 44 A C -0.046767
0 44 A U 0.000686
0 44 A G -0.002528
0 44 A - 0.000963
0 44 C A -0.000010
0 44 C C -0.000014
0 44 C U 0.000036
0 44 C G -0.000045
0 44 C - 0.000049
0 44 U A 0.000006
0 44 U C 0.000486
0 44 U U -0.000024
0 44 U G 0.000006
0 44 U - -0.000011
0 44 G A 0.000011
0 44 G C -0.000035
0 44 G U -0.004491
0 44 G G 0.000009
0 44 G - 0.000031
0 44 - A 0.000019
0 44 - C 0.004001
0 44 - U -0.000024
0 44 - G -0.000013
0 44 - - 0.000032
0 45 A A 0.000610
0 45 A C -0.075420
0 45 A U 0.001870
0 45 A G -0.002288
0 45 A - 0.000921
0 45 C A 0.000013
0 45 C C -0.000038
0 45 C U 0.000002
0 45 C G 0.000036
0 45 C - 0.000024
0 45 U A 0.000559
0 45 U C 0.001670
0 45 U U 0.000029
0 45 U G -0.000047
0 45 U - -0.000006
0 45 G A 0.000029
0 45 G C 0.000002
0 45 G U -0.117006
0 45 G G 0.000041
0 45 G - 0.000042
0 45 - A 0.000019
0 45 - C 0.003058
0 45 - U 0.000879
0 45 - G -0.000033
0 45 - - -0.000001
0 46 A A -0.002189
0 46 A C -0.006321
0 46 A U 0.008398
0 46 A G -0.001246
0 46 A - 0.001476
0 46 C A -0.000012
0 46 C C 0.000032
0 46 C U 0.000042
0 46 C G -0.000056
0 46 C - 0.000053
0 46 U A -0.000035
0 46 U C -0.000026
0 46 U U 0.000048
0 46 U G 0.000554
0 46 U - -0.000022
0 46 G A 0.000158
0 46 G C -0.000035
0 46 G U 0.000058
0 46 G G -0.209482
0 46 G - -0.000007
0 46 - A 0.000872
0 46 - C 0.001807
0 46 - U 0.000030
0 46 - G -0.000028
0 46 - - -0.000001
1 1 A A -0.002146
1 1 C C -0.005624
1 1 U U 0.000520
1 1 G G 0.002245
1 1 - - 0.019147
1 2 A A -0.000018
1 2 A C -0.000012
1 2 A U -0.000107
1 2 A G -0.000035
1 2 A - -0.000036
1 2 C A -0.000637
1 2 C C -0.000043
1 2 C U -0.016064
1 2 C G 0.000732
1 2 C - -0.000030
1 2 U A 0.000045
1 2 U C -0.000029
1 2 U U 0.000503
1 2 U G 0.000012
1 2 U - -0.000027
1 2 G A -0.000027
1 2 G C -0.000548
1 2 G U 0.004226
1 2 G G 0.002473
1 2 G - 0.000006
1 2 - A -0.000027
1 2 - C 0.000161
1 2 - U 0.001480
1 2 - G 0.000045
1 2 - - -0.000005
1 3 A A -0.000021
1 3 A C -0.001616
1 3 A U 0.000020
1 3 A G 0.000113
1 3 A - -0.000050
1 3 C A -0.000034
1 3 C C -0.006855
1 3 C U 0.000888
1 3 C G -0.000141
1 3 C - -0.000050
1 3 U A 0.000000
1 3 U C 0.000518
1 3 U U 0.000021
1 3 U G -0.000035
1 3 U - 0.000006
1 3 G A 0.000006
1 3 G C -0.000109
1 3 G U 0.002413
1 3 G G 0.000778
1 3 G - 0.000023
1 3 - A -0.000035
1 3 - C 0.002496
1 3 - U 0.000000
1 3 - G 0.000212
1 3 - - 0.000038
1 4 A A 0.000031
1 4 A C 0.000020
1 4 A U -0.000015
1 4 A G -0.001865
1 4 A - 0.000035
1 4 C A -0.000005
1 4 C C -0.000025
1 4 C U -0.000023
1 4 C G -0.007792
1 4 C - -0.000033
1 4 U A 0.000015
1 4 U C 0.000014
1 4 U U 0.000005
1 4 U G 0.000486
1 4 U - -0.000015
1 4 G A -0.000025
1 4 G C 0.000039
1 4 G U 0.000530
1 4 G G -0.004481
1 4 G - 0.000026
1 4 - A 0.000001
1 4 - C 0.000025
1 4 - U 0.000015
1 4 - G 0.021049
1 4 - - -0.000015
1 5 A A -0.000011
1 5 A C 0.000031
1 5 A U -0.000001
1 5 A G 0.000026
1 5 A - -0.000007
1 5 C A -0.000776
1 5 C C -0.000041
1 5 C U -0.001821
1 5 C G -0.000013
1 5 C - 0.000022
1 5 U A 0.000031
1 5 U C 0.000016
1 5 U U -0.000012
1 5 U G 0.000690
1 5 U - 0.000038
1 5 G A 0.004202
1 5 G C 0.000002
1 5 G U -0.113494
1 5 G G -0.000055
1 5 G - 0.000893
1 5 - A 0.000010
1 5 - C 0.000018
1 5 - U 0.001255
1 5 - G -0.000031
1 5 - - 0.000047
1 6 A A 0.000033
1 6 A C -0.000085
1 6 A U -0.000032
1 6 A G -0.000004
1 6 A - -0.000014
1 6 C A 0.000540
1 6 C C -0.009479
1 6 C U -0.001373
1 6 C G -0.000032
1 6 C - 0.000010
1 6 U A 0.000029
1 6 U C 0.000538
1 6 U U 0.000023
1 6 U G -0.000014
1 6 U - -0.000006
1 6 G A -0.000035
1 6 G C 0.005959
1 6 G U -0.058456
1 6 G G 0.000930
1 6 G - -0.000024
1 6 - A 0.000043
1 6 - C 0.000937
1 6 - U 0.000604
1 6 - G -0.000013
1 6 - - -0.000001
1 7 A A 0.000041
1 7 A C -0.000002
1 7 A U -0.000029
1 7 A G -0.000067
1 7 A - 0.000021
1 7 C A 0.000278
1 7 C C -0.000039
1 7 C U -0.009461
1 7 C G -0.000089
1 7 C - 0.000026
1 7 U A 0.000051
1 7 U C -0.000033
1 7 U U 0.000517
1 7 U G -0.000007
1 7 U - 0.000021
1 7 G A -0.038633
1 7 G C 0.000085
1 7 G U 0.005947
1 7 G G 0.000484
1 7 G - -0.000037
1 7 - A 0.000016
1 7 - C 0.000003
1 7 - U 0.001960
1 7 - G -0.000045
1 7 - - -0.000043
1 8 A A -0.000003
1 8 A C -0.000064
1 8 A U -0.000014
1 8 A G 0.000234
1 8 A - 0.000048
1 8 C A 0.000367
1 8 C C -0.001089
1 8 C U 0.000913
1 8 C G -0.181120
1 8 C - 0.000023
1 8 U A 0.000614
1 8 U C 0.000029
1 8 U U -0.000003
1 8 U G 0.000019
1 8 U - -0.000021
1 8 G A 0.003663
1 8 G C 0.000574
1 8 G U -0.000053
1 8 G G -0.000568
1 8 G - 0.002553
1 8 - A -0.000036
1 8 - C 0.000034
1 8 - U -0.000012
1 8 - G 0.001335
1 8 - - 0.000017
1 9 A A -0.000028
1 9 A C 0.000048
1 9 A U -0.000030
1 9 A G -0.142931
1 9 A - -0.000018
1 9 C A -0.001691
1 9 C C 0.000695
1 9 C U 0.000042
1 9 C G -0.001563
1 9 C - 0.000027
1 9 U A 0.000663
1 9 U C 0.000021
1 9 U U 0.000005
1 9 U G -0.000020
1 9 U - -0.000019
1 9 G A -0.010103
1 9 G C 0.000724
1 9 G U -0.000034
1 9 G G 0.003179
1 9 G - -0.000035
1 9 - A 0.000017
1 9 - C 0.000036
1 9 - U -0.000008
1 9 - G 0.001279
1 9 - - -0.000007
1 10 A A -0.000005
1 10 A C 0.000018
1 10 A U 0.000015
1 10 A G -0.000215
1 10 A - 0.000033
1 10 C A -0.000077
1 10 C C -0.000058
1 10 C U -0.000040
1 10 C G -0.005182
1 10 C - -0.000001
1 10 U A 0.000017
1 10 U C 0.000051
1 10 U U -0.000036
1 10 U G 0.000591
1 10 U - 0.000031
1 10 G A -0.000030
1 10 G C 0.001768
1 10 G U 0.000010
1 10 G G -0.022910
1 10 G - 0.000458
1 10 - A 0.000048
1 10 - C 0.000045
1 10 - U 0.000149
1 10 - G 0.001169
1 10 - - 0.000017
1 11 A A -0.000001
1 11 A C -0.001791
1 11 A U -0.000010
1 11 A G -0.000004
1 11 A - -0.000012
1 11 C A 0.000414
1 11 C C -0.015891
1 11 C U 0.000021
1 11 C G 0.000028
1 11 C - 0.000011
1 11 U A -0.000011
1 11 U C 0.000557
1 11 U U 0.000038
1 11 U G -0.000012
1 11 U - -0.000011
1 11 G A 0.000015
1 11 G C 0.002427
1 11 G U -0.000062
1 11 G G 0.000044
1 11 G - 0.000013
1 11 - A -0.000000
1 11 - C 0.015290
1 11 - U 0.000049
1 11 - G -0.000004
1 11 - - 0.000049
1 12 A A 0.000000
1 12 A C 0.000118
1 12 A U 0.000004
1 12 A G -0.001578
1 12 A - -0.000024
1 12 C A -0.000036
1 12 C C -0.000799
1 12 C U -0.000041
1 12 C G -0.007012
1 12 C - -0.000041
1 12 U A -0.000042
1 12 U C 0.000007
1 12 U U -0.000026
1 12 U G 0.000523
1 12 U - -0.000029
1 12 G A 0.000953
1 12 G C 0.000077
1 12 G U -0.000057
1 12 G G 0.002421
1 12 G - 0.000022
1 12 - A 0.000024
1 12 - C 0.000120
1 12 - U -0.000019
1 12 - G 0.000577
1 12 - - 0.000025
1 13 A A -0.000050
1 13 A C -0.000020
1 13 A U -0.000019
1 13 A G -0.000071
1 13 A - -0.000007
1 13 C A -0.013321
1 13 C C -0.000003
1 13 C U -0.000704
1 13 C G 0.000022
1 13 C - 0.000532
1 13 U A 0.000521
1 13 U C -0.000013
1 13 U U -0.000000
1 13 U G 0.000005
1 13 U - -0.000015
1 13 G A 0.003043
1 13 G C 0.000793
1 13 G U 0.000014
1 13 G G -0.045936
1 13 G - 0.000252
1 13 - A 0.001405
1 13 - C 0.000247
1 13 - U -0.000033
1 13 - G -0.000003
1 13 - - 0.000005
1 14 A A 0.000148
1 14 A C 0.158832
1 14 A U -0.385627
1 14 A G 0.342437
1 14 A - 0.000725
1 14 C A 0.048228
1 14 C C 0.880314
1 14 C U 0.147195
1 14 C G -1.531770
1 14 C - 0.012878
1 14 U A 0.000022
1 14 U C 0.012792
1 14 U U 0.000180
1 14 U G 0.001728
1 14 U - 0.000052
1 14 G A 0.010789
1 14 G C -1.838275
1 14 G U 0.160679
1 14 G G 1.010302
1 14 G - 0.000014
1 14 - A 0.000015
1 14 - C 0.013876
1 14 - U 0.000036
1 14 - G 0.102717
1 14 - - 0.000809
1 15 A A 0.000026
1 15 A C -0.000026
1 15 A U -0.000047
1 15 A G -0.000016
1 15 A - -0.000007
1 15 C A 0.000758
1 15 C C 0.000029
1 15 C U -0.009100
1 15 C G -0.000162
1 15 C - 0.001273
1 15 U A 0.000025
1 15 U C 0.000027
1 15 U U 0.000644
1 15 U G 0.000036
1 15 U - -0.000012
1 15 G A 0.000955
1 15 G C -0.000008
1 15 G U -0.067741
1 15 G G 0.002082
1 15 G - 0.000040
1 15 - A -0.000011
1 15 - C 0.000003
1 15 - U 0.002084
1 15 - G 0.000030
1 15 - - -0.000013
1 16 A A -0.000081
1 16 A C -0.000005
1 16 A U -0.000008
1 16 A G 0.000041
1 16 A - 0.000028
1 16 C A -0.189433
1 16 C C -0.000013
1 16 C U 0.081334
1 16 C G 0.000678
1 16 C - 0.000147
1 16 U A -0.000017
1 16 U C 0.000002
1 16 U U 0.000797
1 16 U G 0.000018
1 16 U - 0.000001
1 16 G A 0.011392
1 16 G C -0.000499
1 16 G U -0.108765
1 16 G G 0.000865
1 16 G - 0.000280
1 16 - A 0.000003
1 16 - C 0.000049
1 16 - U -0.000011
1 16 - G 0.000725
1 16 - - 0.000295
1 17 A A -0.007404
1 17 A C 0.000032
1 17 A U 0.156634
1 17 A G -0.000021
1 17 A - 0.000013
1 17 C A 0.000341
1 17 C C 0.000026
1 17 C U -0.455804
1 17 C G 0.000029
1 17 C - 0.000050
1 17 U A 0.000038
1 17 U C 0.000037
1 17 U U 0.018051
1 17 U G 0.000027
1 17 U - 0.000057
1 17 G A 0.001781
1 17 G C 0.000010
1 17 G U -0.039495
1 17 G G 0.001690
1 17 G - 0.000018
1 17 - A -0.000028
1 17 - C -0.000036
1 17 - U 0.010461
1 17 - G 0.000421
1 17 - - -0.000016
1 18 A A -0.001822
1 18 A C 0.000046
1 18 A U 0.000048
1 18 A G 0.000032
1 18 A - -0.000032
1 18 C A -0.008171
1 18 C C -0.000024
1 18 C U 0.000018
1 18 C G -0.000003
1 18 C - 0.000025
1 18 U A 0.000496
1 18 U C 0.000040
1 18 U U 0.000019
1 18 U G -0.000027
1 18 U - 0.000032
1 18 G A -0.003062
1 18 G C 0.000043
1 18 G U 0.000046
1 18 G G 0.000035
1 18 G - 0.000040
1 18 - A 0.022541
1 18 - C 0.000042
1 18 - U 0.000043
1 18 - G -0.000026
1 18 - - 0.000032
1 19 A A -0.001887
1 19 A C -0.000036
1 19 A U 0.000003
1 19 A G 0.000003
1 19 A - -0.000048
1 19 C A -0.006165
1 19 C C 0.000003
1 19 C U -0.000001
1 19 C G -0.000023
1 19 C - 0.000004
1 19 U A 0.000469
1 19 U C 0.000003
1 19 U U 0.000020
1 19 U G 0.000021
1 19 U - -0.000043
1 19 G A 0.001376
1 19 G C 0.000014
1 19 G U -0.000032
1 19 G G -0.000020
1 19 G - 0.000026
1 19 - A 0.020625
1 19 - C 0.000003
1 19 - U 0.000003
1 19 - G 0.000036
1 19 - - 0.000022
1 20 A A -0.000586
1 20 A C -0.000031
1 20 A U 0.000033
1 20 A G -0.000051
1 20 A - 0.000048
1 20 C A -0.025300
1 20 C C -0.000047
1 20 C U 0.000073
1 20 C G -0.000010
1 20 C - 0.001324
1 20 U A 0.000495
1 20 U C 0.000023
1 20 U U 0.000023
1 20 U G 0.000023
1 20 U - 0.000036
1 20 G A 0.002403
1 20 G C -0.000012
1 20 G U -0.000027
1 20 G G -0.000004
1 20 G - -0.000006
1 20 - A 0.015039
1 20 - C -0.000030
1 20 - U -0.000034
1 20 - G 0.000037
1 20 - - 0.000034
1 21 A A 0.000011
1 21 A C -0.000010
1 21 A U 0.000003
1 21 A G -0.000024
1 21 A - -0.000004
1 21 C A -0.000034
1 21 C C -0.000039
1 21 C U -0.292866