# NB_STEPS 3000
# UP_FREQ 1000
# TEMP 1.000000
# LAMBDA 0.010000
# ID_THRES 1.000000
# ALPHA 2.047276
0 0 A A -0.006123
0 0 C C -0.000295
0 0 U U 0.005966
0 0 G G -0.001431
0 0 - - 0.001619
0 1 A A 0.011518
0 1 A C 0.003715
0 1 A U -0.167156
0 1 A G 0.122857
0 1 A - 0.376370
0 1 C A 0.073328
0 1 C C 0.000009
0 1 C U 0.000624
0 1 C G -0.000752
0 1 C - 0.000009
0 1 U A -0.231539
0 1 U C 0.000787
0 1 U U 0.006116
0 1 U G 0.331067
0 1 U - 0.264217
0 1 G A 0.030511
0 1 G C 0.000142
0 1 G U -0.000226
0 1 G G -0.401660
0 1 G - 0.020549
0 1 - A 0.000298
0 1 - C 0.002500
0 1 - U 0.684323
0 1 - G 0.265381
0 1 - - -1.512079
0 2 A A -0.003769
0 2 A C 0.007027
0 2 A U -0.065380
0 2 A G 0.044124
0 2 A - 0.321470
0 2 C A 0.003786
0 2 C C -0.000017
0 2 C U 0.286121
0 2 C G -0.130399
0 2 C - 0.000012
0 2 U A -0.301856
0 2 U C -0.000070
0 2 U U 0.034844
0 2 U G 0.214984
0 2 U - 0.107669
0 2 G A 0.081966
0 2 G C 0.126044
0 2 G U -0.322618
0 2 G G -0.016704
0 2 G - 0.216326
0 2 - A 0.194714
0 2 - C 0.000005
0 2 - U 0.596223
0 2 - G 0.020120
0 2 - - -1.500571
0 3 A A -0.307172
0 3 A C -0.000499
0 3 A U 0.088995
0 3 A G 0.118500
0 3 A - 0.043371
0 3 C A 0.263988
0 3 C C 0.001302
0 3 C U -0.277490
0 3 C G 0.000009
0 3 C - 0.000716
0 3 U A -0.001505
0 3 U C 0.167887
0 3 U U -0.010906
0 3 U G 0.001134
0 3 U - 0.013874
0 3 G A 0.042881
0 3 G C -0.160395
0 3 G U 0.067681
0 3 G G 0.002484
0 3 G - 0.000012
0 3 - A 0.004747
0 3 - C 0.428100
0 3 - U 0.132309
0 3 - G 0.000229
0 3 - - -0.697019
0 4 A A -0.000071
0 4 A C 0.005759
0 4 A U -0.198741
0 4 A G 0.000860
0 4 A - 0.253029
0 4 C A 0.035924
0 4 C C -0.000004
0 4 C U -0.000715
0 4 C G 0.036303
0 4 C - 0.000004
0 4 U A -0.006597
0 4 U C 0.009426
0 4 U U 0.108687
0 4 U G -0.174078
0 4 U - 0.014492
0 4 G A -0.000479
0 4 G C -0.000005
0 4 G U 0.141228
0 4 G G 0.000032
0 4 G - 0.000990
0 4 - A 0.119838
0 4 - C 0.000004
0 4 - U 0.006926
0 4 - G 0.132474
0 4 - - -0.589925
0 5 A A 0.001758
0 5 A C 0.003432
0 5 A U -0.001653
0 5 A G -0.029310
0 5 A - 0.176866
0 5 C A 0.006489
0 5 C C 0.001424
0 5 C U -0.000653
0 5 C G -0.001073
0 5 C - 0.000009
0 5 U A -0.017215
0 5 U C 0.003386
0 5 U U 0.431410
0 5 U G -0.122343
0 5 U - 0.000004
0 5 G A -0.001960
0 5 G C -0.232031
0 5 G U -0.006911
0 5 G G 0.163805
0 5 G - -0.000005
0 5 - A 0.002934
0 5 - C -0.000003
0 5 - U 0.001567
0 5 - G 0.340597
0 5 - - -0.761900
0 6 A A -0.757435
0 6 A C 0.001905
0 6 A U 0.462893
0 6 A G -0.001687
0 6 A - 0.142358
0 6 C A 0.496975
0 6 C C 0.001906
0 6 C U -0.180231
0 6 C G -0.000010
0 6 C - 0.000011
0 6 U A -0.580589
0 6 U C 0.000886
0 6 U U 0.004050
0 6 U G 0.433893
0 6 U - 0.000007
0 6 G A 0.118461
0 6 G C -0.000009
0 6 G U -0.545972
0 6 G G 0.004330
0 6 G - 0.003395
0 6 - A 0.712472
0 6 - C 0.022821
0 6 - U 0.160063
0 6 - G -0.000254
0 6 - - -0.563102
0 7 A A -0.001632
0 7 A C -0.000548
0 7 A U -0.048448
0 7 A G 0.135012
0 7 A - 0.010727
0 7 C A -0.205003
0 7 C C 0.131980
0 7 C U 0.003579
0 7 C G 0.000843
0 7 C - 0.000001
0 7 U A 0.010083
0 7 U C 0.002561
0 7 U U -0.000130
0 7 U G 0.000903
0 7 U - 0.006622
0 7 G A 0.077982
0 7 G C 0.015481
0 7 G U 0.002060
0 7 G G -0.244803
0 7 G - 0.000011
0 7 - A 0.002515
0 7 - C -0.000012
0 7 - U 0.190429
0 7 - G 0.008946
0 7 - - -0.197967
0 8 A A -0.509102
0 8 A C 0.001284
0 8 A U -0.099546
0 8 A G -0.000613
0 8 A - 0.318365
0 8 C A -0.003411
0 8 C C 0.000257
0 8 C U 0.006223
0 8 C G 0.039015
0 8 C - -0.042292
0 8 U A 0.000928
0 8 U C 0.000121
0 8 U U 0.002388
0 8 U G -0.006318
0 8 U - 0.182625
0 8 G A 0.142516
0 8 G C -0.000009
0 8 G U -0.000636
0 8 G G -0.022988
0 8 G - -0.192867
0 8 - A 0.246689
0 8 - C -0.000045
0 8 - U -0.000424
0 8 - G 0.010384
0 8 - - -0.068260
0 9 A A -0.285650
0 9 A C 0.185934
0 9 A U -0.009266
0 9 A G 0.054166
0 9 A - -0.010020
0 9 C A -0.000045
0 9 C C 0.000010
0 9 C U 0.001634
0 9 C G -0.000567
0 9 C - -0.000067
0 9 U A 0.011596
0 9 U C -0.002283
0 9 U U 0.000146
0 9 U G -0.048375
0 9 U - 0.088470
0 9 G A 0.000152
0 9 G C -0.001678
0 9 G U 0.044371
0 9 G G -0.006434
0 9 G - 0.000452
0 9 - A -0.000049
0 9 - C -0.000021
0 9 - U -0.058142
0 9 - G 0.046128
0 9 - - -0.003984
0 10 A A 0.000329
0 10 A C -0.001455
0 10 A U 0.035487
0 10 A G 0.006121
0 10 A - 0.012678
0 10 C A 0.017786
0 10 C C 0.043002
0 10 C U -0.471006
0 10 C G 0.106683
0 10 C - 0.000248
0 10 U A -0.002096
0 10 U C 0.021909
0 10 U U 0.011042
0 10 U G -0.005436
0 10 U - 0.016011
0 10 G A 0.103107
0 10 G C 0.000396
0 10 G U 0.001447
0 10 G G -0.186731
0 10 G - 0.057058
0 10 - A -0.118817
0 10 - C -0.000481
0 10 - U 0.103333
0 10 - G 0.158493
0 10 - - -0.000404
0 11 A A 0.301844
0 11 A C -0.133738
0 11 A U -0.002636
0 11 A G -0.000448
0 11 A - -0.033426
0 11 C A 0.001424
0 11 C C -0.296884
0 11 C U 0.013230
0 11 C G 0.001661
0 11 C - 0.000812
0 11 U A -0.012745
0 11 U C 0.368353
0 11 U U -0.066251
0 11 U G -0.000026
0 11 U - 0.000420
0 11 G A -0.166588
0 11 G C 0.003976
0 11 G U 0.024775
0 11 G G 0.000790
0 11 G - 0.010631
0 11 - A 0.003832
0 11 - C -0.000002
0 11 - U -0.034335
0 11 - G 0.000914
0 11 - - 0.000686
0 12 A A -0.123216
0 12 A C 0.055536
0 12 A U 0.503231
0 12 A G -0.000032
0 12 A - -0.464994
0 12 C A -0.061989
0 12 C C 0.000248
0 12 C U 0.021603
0 12 C G 0.000000
0 12 C - 0.000899
0 12 U A 0.035327
0 12 U C -0.000026
0 12 U U -0.069609
0 12 U G 0.000811
0 12 U - 0.024687
0 12 G A 0.268908
0 12 G C -0.024565
0 12 G U -0.250938
0 12 G G 0.007641
0 12 G - 0.011340
0 12 - A 0.016541
0 12 - C 0.013351
0 12 - U -0.005046
0 12 - G 0.000158
0 12 - - -0.000314
0 13 A A -0.006726
0 13 A C 0.246116
0 13 A U 0.154770
0 13 A G -0.188931
0 13 A - -0.257981
0 13 C A 0.002985
0 13 C C 0.000640
0 13 C U -0.000353
0 13 C G 0.000058
0 13 C - 0.000801
0 13 U A -0.272635
0 13 U C 0.018231
0 13 U U -0.042191
0 13 U G 0.414902
0 13 U - 0.054663
0 13 G A 0.001352
0 13 G C -0.140030
0 13 G U 0.048364
0 13 G G 0.003268
0 13 G - 0.000013
0 13 - A 0.010001
0 13 - C -0.000001
0 13 - U -0.072653
0 13 - G -0.000470
0 13 - - -0.000431
0 14 A A 0.449388
0 14 A C -0.000599
0 14 A U 0.001199
0 14 A G -0.063537
0 14 A - -0.133055
0 14 C A 0.159752
0 14 C C -0.404117
0 14 C U -0.002207
0 14 C G -0.000082
0 14 C - 0.001517
0 14 U A -0.652023
0 14 U C 0.379632
0 14 U U 0.006307
0 14 U G -0.071229
0 14 U - 0.002013
0 14 G A -0.007996
0 14 G C 0.000862
0 14 G U -0.002872
0 14 G G 0.007544
0 14 G - 0.000867
0 14 - A 0.001737
0 14 - C 0.000442
0 14 - U -0.000037
0 14 - G 0.322497
0 14 - - -0.000341
0 15 A A 0.222584
0 15 A C 0.001082
0 15 A U 0.135067
0 15 A G 0.006241
0 15 A - -0.605022
0 15 C A 0.000065
0 15 C C 0.007072
0 15 C U 0.001401
0 15 C G -0.000205
0 15 C - -0.000038
0 15 U A -0.012277
0 15 U C -0.002691
0 15 U U 0.004145
0 15 U G -0.116767
0 15 U - 0.146740
0 15 G A -0.091514
0 15 G C 0.000225
0 15 G U -0.308505
0 15 G G 0.442551
0 15 G - 0.103667
0 15 - A -0.001682
0 15 - C 0.003343
0 15 - U -0.003449
0 15 - G 0.033811
0 15 - - 0.000872
0 16 A A -0.214860
0 16 A C 0.000009
0 16 A U 0.014022
0 16 A G 0.074880
0 16 A - -0.000125
0 16 C A 0.000657
0 16 C C 0.000003
0 16 C U 0.000660
0 16 C G 0.037461
0 16 C - -0.000124
0 16 U A 0.007839
0 16 U C 0.000661
0 16 U U -0.000000
0 16 U G -0.005568
0 16 U - 0.000677
0 16 G A 0.017970
0 16 G C 0.000009
0 16 G U -0.000038
0 16 G G -0.001712
0 16 G - -0.000002
0 16 - A 0.019506
0 16 - C 0.000113
0 16 - U -0.003517
0 16 - G 0.001893
0 16 - - -0.000004
0 17 A A 0.001497
0 17 A C -0.000004
0 17 A U 0.000006
0 17 A G -0.001647
0 17 A - -0.000015
0 17 C A 0.000002
0 17 C C 0.000831
0 17 C U 0.000008
0 17 C G 0.028204
0 17 C - -0.000001
0 17 U A -0.266244
0 17 U C -0.000003
0 17 U U -0.000000
0 17 U G 0.169423
0 17 U - 0.000952
0 17 G A 0.000011
0 17 G C 0.000004
0 17 G U 0.000005
0 17 G G -0.002286
0 17 G - -0.000005
0 17 - A 0.000011
0 17 - C -0.000005
0 17 - U 0.000001
0 17 - G 0.001461
0 17 - - 0.000890
0 18 A A -0.002131
0 18 A C 0.000007
0 18 A U 0.000661
0 18 A G 0.002229
0 18 A - -0.004301
0 18 C A 0.000000
0 18 C C -0.000005
0 18 C U 0.000525
0 18 C G 0.161153
0 18 C - -0.044599
0 18 U A -0.000051
0 18 U C 0.000001
0 18 U U -0.000290
0 18 U G -0.007384
0 18 U - 0.000667
0 18 G A -0.000006
0 18 G C -0.000006
0 18 G U -0.006098
0 18 G G 0.005301
0 18 G - -0.000009
0 18 - A 0.000006
0 18 - C 0.000007
0 18 - U 0.006300
0 18 - G -0.092254
0 18 - - -0.000009
0 19 A A 0.001912
0 19 A C -0.000320
0 19 A U -0.230256
0 19 A G -0.001284
0 19 A - 0.000097
0 19 C A -0.000046
0 19 C C 0.000003
0 19 C U 0.000062
0 19 C G -0.001589
0 19 C - -0.002211
0 19 U A 0.001514
0 19 U C -0.000154
0 19 U U 0.312750
0 19 U G -0.007276
0 19 U - 0.000582
0 19 G A -0.005286
0 19 G C -0.000137
0 19 G U -0.005508
0 19 G G -0.001820
0 19 G - -0.000011
0 19 - A -0.006473
0 19 - C 0.000258
0 19 - U 0.008010
0 19 - G -0.004257
0 19 - - 0.000004
0 20 A A -0.003498
0 20 A C 0.000008
0 20 A U -0.000005
0 20 A G -0.000100
0 20 A - 0.000003
0 20 C A 0.036655
0 20 C C -0.000005
0 20 C U 0.000004
0 20 C G 0.000003
0 20 C - -0.027943
0 20 U A 0.001813
0 20 U C 0.000003
0 20 U U -0.000008
0 20 U G 0.000680
0 20 U - -0.000002
0 20 G A -0.046554
0 20 G C 0.000006
0 20 G U -0.000008
0 20 G G 0.000010
0 20 G - -0.000005
0 20 - A 0.000366
0 20 - C 0.000342
0 20 - U 0.000004
0 20 - G 0.001279
0 20 - - 0.000005
0 21 A A -0.015508
0 21 A C 0.001140
0 21 A U 0.000005
0 21 A G 0.000003
0 21 A - 0.000338
0 21 C A 0.066580
0 21 C C -0.000009
0 21 C U 0.000008
0 21 C G 0.000004
0 21 C - -0.059163
0 21 U A -0.012972
0 21 U C 0.000009
0 21 U U 0.000005
0 21 U G 0.000004
0 21 U - -0.000009
0 21 G A 0.000097
0 21 G C -0.000066
0 21 G U 0.000963
0 21 G G 0.000002
0 21 G - 0.000007
0 21 - A 0.004050
0 21 - C -0.000003
0 21 - U 0.000723
0 21 - G 0.000004
0 21 - - -0.000009
0 22 A A 0.000356
0 22 A C 0.028525
0 22 A U -0.106276
0 22 A G 0.029155
0 22 A - 0.000659
0 22 C A 0.000004
0 22 C C -0.000008
0 22 C U 0.130610
0 22 C G 0.001687
0 22 C - 0.000911
0 22 U A 0.000001
0 22 U C 0.000041
0 22 U U 0.008514
0 22 U G -0.001836
0 22 U - -0.225770
0 22 G A -0.000593
0 22 G C 0.008436
0 22 G U 0.008355
0 22 G G -0.000868
0 22 G - 0.004960
0 22 - A 0.007882
0 22 - C 0.000987
0 22 - U -0.004919
0 22 - G 0.000370
0 22 - - 0.021872
0 23 A A -0.378774
0 23 A C -0.001027
0 23 A U -0.000334
0 23 A G 0.001398
0 23 A - 0.000005
0 23 C A -0.000021
0 23 C C 0.390788
0 23 C U -0.227050
0 23 C G 0.000859
0 23 C - 0.000008
0 23 U A -0.000198
0 23 U C -0.033122
0 23 U U 0.006121
0 23 U G 0.001734
0 23 U - 0.000001
0 23 G A 0.143980
0 23 G C -0.003398
0 23 G U -0.038809
0 23 G G 0.003868
0 23 G - 0.000007
0 23 - A 0.001690
0 23 - C -0.024293
0 23 - U 0.121691
0 23 - G -0.001769
0 23 - - -0.000000
0 24 A A -0.045214
0 24 A C 0.007063
0 24 A U 0.027928
0 24 A G -0.000727
0 24 A - -0.000003
0 24 C A 0.000368
0 24 C C 0.001101
0 24 C U -0.000009
0 24 C G -0.165500
0 24 C - 0.000010
0 24 U A -0.002138
0 24 U C -0.002207
0 24 U U 0.004666
0 24 U G 0.129802
0 24 U - 0.000774
0 24 G A -0.000889
0 24 G C 0.000310
0 24 G U -0.020095
0 24 G G 0.001841
0 24 G - -0.000001
0 24 - A 0.007815
0 24 - C 0.002072
0 24 - U 0.004659
0 24 - G -0.006007
0 24 - - 0.000908
0 25 A A -0.108912
0 25 A C 0.031609
0 25 A U -0.142475
0 25 A G 0.006752
0 25 A - -0.000003
0 25 C A 0.183275
0 25 C C 0.002481
0 25 C U -0.060867
0 25 C G -0.028361
0 25 C - -0.000002
0 25 U A 0.001412
0 25 U C -0.134254
0 25 U U 0.316178
0 25 U G -0.027149
0 25 U - -0.000002
0 25 G A -0.006302
0 25 G C -0.005235
0 25 G U -0.000074
0 25 G G -0.000049
0 25 G - 0.000003
0 25 - A -0.005596
0 25 - C 0.005564
0 25 - U 0.002783
0 25 - G -0.002522
0 25 - - -0.000002
0 26 A A 0.003751
0 26 A C 0.254094
0 26 A U -0.014001
0 26 A G -0.008185
0 26 A - -0.000002
0 26 C A -0.129478
0 26 C C 0.000001
0 26 C U 0.000001
0 26 C G 0.026333
0 26 C - 0.000002
0 26 U A -0.000251
0 26 U C -0.354049
0 26 U U -0.000188
0 26 U G 0.111948
0 26 U - 0.000011
0 26 G A 0.069104
0 26 G C 0.000383
0 26 G U -0.000698
0 26 G G -0.000901
0 26 G - -0.000004
0 26 - A 0.000747
0 26 - C 0.000141
0 26 - U 0.014932
0 26 - G -0.007315
0 26 - - -0.000003
0 27 A A -0.000000
0 27 A C -0.000008
0 27 A U -0.000007
0 27 A G -0.007154
0 27 A - 0.000003
0 27 C A 0.000003
0 27 C C 0.000003
0 27 C U 0.000003
0 27 C G -0.000270
0 27 C - 0.000003
0 27 U A 0.000003
0 27 U C 0.000749
0 27 U U -0.000009
0 27 U G 0.001717
0 27 U - 0.000001
0 27 G A -0.000009
0 27 G C 0.000001
0 27 G U 0.000003
0 27 G G -0.002169
0 27 G - 0.000003
0 27 - A 0.000003
0 27 - C 0.000003
0 27 - U 0.000009
0 27 - G 0.001034
0 27 - - 0.000003
0 28 A A 0.000008
0 28 A C -0.000122
0 28 A U -0.004125
0 28 A G -0.000007
0 28 A - 0.000010
0 28 C A 0.000001
0 28 C C 0.001045
0 28 C U -0.000864
0 28 C G -0.000002
0 28 C - 0.000010
0 28 U A 0.000005
0 28 U C -0.000183
0 28 U U 0.003513
0 28 U G 0.000941
0 28 U - 0.000010
0 28 G A 0.000636
0 28 G C 0.000027
0 28 G U -0.007905
0 28 G G 0.000001
0 28 G - -0.000007
0 28 - A -0.000005
0 28 - C -0.000008
0 28 - U -0.002812
0 28 - G -0.000009
0 28 - - 0.000010
0 29 A A 0.000853
0 29 A C 0.000442
0 29 A U -0.000290
0 29 A G -0.017432
0 29 A - 0.001062
0 29 C A 0.000010
0 29 C C -0.000007
0 29 C U 0.000010
0 29 C G -0.000220
0 29 C - 0.000004
0 29 U A 0.000010
0 29 U C 0.000010
0 29 U U 0.000003
0 29 U G -0.024182
0 29 U - 0.000365
0 29 G A 0.000008
0 29 G C 0.000002
0 29 G U -0.000018
0 29 G G 0.411609
0 29 G - -0.398968
0 29 - A 0.000002
0 29 - C 0.000006
0 29 - U -0.000001
0 29 - G 0.000721
0 29 - - -0.000004
0 30 A A 0.242337
0 30 A C 0.001756
0 30 A U -0.266918
0 30 A G 0.019524
0 30 A - 0.000978
0 30 C A -0.000074
0 30 C C 0.000367
0 30 C U 0.000910
0 30 C G 0.000004
0 30 C - 0.000007
0 30 U A 0.011374
0 30 U C 0.004128
0 30 U U 0.036253
0 30 U G 0.001228
0 30 U - 0.000014
0 30 G A -0.194829
0 30 G C 0.002012
0 30 G U 0.006579
0 30 G G 0.000011
0 30 G - 0.002375
0 30 - A -0.002019
0 30 - C 0.001662
0 30 - U 0.018172
0 30 - G -0.000757
0 30 - - 0.000257
0 31 A A -0.012034
0 31 A C 0.000003
0 31 A U 0.000012
0 31 A G 0.001624
0 31 A - 0.000629
0 31 C A -0.000103
0 31 C C 0.000005
0 31 C U -0.000006
0 31 C G -0.000005
0 31 C - 0.000004
0 31 U A 0.001358
0 31 U C 0.000321
0 31 U U -0.000004
0 31 U G 0.000004
0 31 U - 0.000722
0 31 G A 0.105077
0 31 G C 0.000004
0 31 G U 0.000000
0 31 G G -0.174232
0 31 G - 0.000007
0 31 - A 0.006199
0 31 - C 0.000027
0 31 - U 0.000009
0 31 - G -0.000890
0 31 - - 0.000002
0 32 A A 0.210007
0 32 A C 0.000667
0 32 A U -0.256911
0 32 A G 0.000302
0 32 A - 0.000950
0 32 C A -0.000166
0 32 C C 0.000000
0 32 C U 0.000011
0 32 C G -0.000003
0 32 C - 0.000011
0 32 U A 0.001572
0 32 U C 0.000789
0 32 U U 0.000010
0 32 U G 0.000009
0 32 U - -0.000004
0 32 G A -0.028591
0 32 G C -0.000006
0 32 G U 0.000739
0 32 G G 0.000002
0 32 G - -0.000001
0 32 - A -0.001895
0 32 - C 0.000079
0 32 - U 0.001794
0 32 - G 0.000000
0 32 - - 0.000668
0 33 A A -0.015920
0 33 A C -0.001130
0 33 A U 0.057744
0 33 A G -0.000340
0 33 A - 0.000459
0 33 C A 0.002294
0 33 C C 0.000004
0 33 C U 0.083600
0 33 C G -0.000200
0 33 C - -0.000007
0 33 U A -0.002164
0 33 U C -0.320883
0 33 U U 0.061358
0 33 U G 0.089925
0 33 U - 0.000638
0 33 G A 0.014672
0 33 G C 0.231311
0 33 G U -0.239924
0 33 G G -0.000430
0 33 G - -0.000008
0 33 - A 0.087720
0 33 - C 0.012576
0 33 - U -0.095455
0 33 - G -0.001538
0 33 - - 0.000005
0 34 A A -0.202722
0 34 A C 0.000295
0 34 A U -0.004756
0 34 A G 0.000968
0 34 A - 0.000538
0 34 C A -0.000004
0 34 C C 0.000010
0 34 C U -0.000161
0 34 C G 0.000001
0 34 C - -0.000007
0 34 U A 0.047976
0 34 U C -0.000014
0 34 U U 0.007225
0 34 U G 0.000005
0 34 U - 0.001468
0 34 G A -0.000004
0 34 G C -0.000017
0 34 G U 0.071611
0 34 G G -0.000002
0 34 G - 0.002335
0 34 - A 0.000006
0 34 - C 0.002806
0 34 - U -0.003529
0 34 - G 0.000874
0 34 - - 0.000007
0 35 A A -0.000002
0 35 A C -0.007286
0 35 A U 0.000005
0 35 A G 0.000010
0 35 A - 0.000010
0 35 C A 0.000010
0 35 C C -0.000268
0 35 C U 0.000010
0 35 C G 0.000010
0 35 C - 0.000010
0 35 U A 0.000010
0 35 U C 0.003078
0 35 U U -0.000004
0 35 U G 0.000745
0 35 U - 0.000009
0 35 G A 0.000010
0 35 G C -0.002922
0 35 G U 0.000425
0 35 G G -0.000002
0 35 G - 0.000010
0 35 - A 0.000008
0 35 - C 0.000942
0 35 - U 0.000010
0 35 - G -0.000000
0 35 - - 0.000010
0 36 A A -0.029484
0 36 A C -0.005721
0 36 A U 0.004464
0 36 A G 0.304074
0 36 A - 0.000548
0 36 C A 0.018795
0 36 C C 0.024523
0 36 C U -0.226845
0 36 C G 0.000004
0 36 C - 0.000010
0 36 U A 0.004376
0 36 U C 0.120999
0 36 U U 0.002599
0 36 U G -0.365816
0 36 U - -0.000007
0 36 G A -0.003267
0 36 G C -0.001930
0 36 G U 0.083766
0 36 G G 0.000556
0 36 G - 0.000002
0 36 - A 0.015520
0 36 - C -0.007757
0 36 - U 0.000775
0 36 - G 0.000504
0 36 - - -0.000003
0 37 A A 0.000646
0 37 A C 0.002498
0 37 A U -0.149192
0 37 A G 0.045125
0 37 A - -0.000007
0 37 C A 0.000835
0 37 C C 0.000971
0 37 C U -0.004804
0 37 C G 0.011433
0 37 C - 0.000010
0 37 U A 0.126479
0 37 U C -0.519651
0 37 U U 0.221555
0 37 U G -0.057063
0 37 U - 0.000005
0 37 G A -0.000028
0 37 G C 0.272116
0 37 G U 0.003427
0 37 G G -0.003254
0 37 G - 0.000002
0 37 - A -0.007312
0 37 - C -0.000877
0 37 - U 0.024212
0 37 - G 0.008971
0 37 - - -0.000001
0 38 A A -0.007358
0 38 A C -0.022097
0 38 A U -0.003746
0 38 A G 0.004213
0 38 A - -0.000008
0 38 C A -0.004480
0 38 C C -0.003716
0 38 C U 0.004406
0 38 C G 0.000312
0 38 C - -0.000006
0 38 U A -0.025990
0 38 U C 0.488124
0 38 U U -0.182269
0 38 U G -0.006691
0 38 U - 0.000002
0 38 G A -0.006957
0 38 G C -0.015231
0 38 G U -0.000030
0 38 G G -0.000460
0 38 G - 0.000001
0 38 - A 0.003165
0 38 - C -0.156302
0 38 - U 0.002382
0 38 - G -0.001395
0 38 - - -0.000011
0 39 A A 0.001622
0 39 A C 0.540044
0 39 A U -0.159404
0 39 A G -0.000637
0 39 A - 0.000003
0 39 C A -0.000294
0 39 C C -0.258015
0 39 C U -0.000006
0 39 C G 0.136700
0 39 C - 0.000006
0 39 U A -0.101248
0 39 U C -0.251730
0 39 U U 0.181754
0 39 U G 0.279538
0 39 U - -0.000007
0 39 G A 0.069775
0 39 G C 0.005922
0 39 G U 0.000544
0 39 G G -0.491006
0 39 G - 0.000007
0 39 - A 0.013026
0 39 - C -0.004595
0 39 - U 0.003658
0 39 - G -0.001343
0 39 - - 0.000005
0 40 A A 0.002573
0 40 A C -0.000001
0 40 A U 0.002719
0 40 A G -0.007468
0 40 A - 0.000009
0 40 C A 0.002599
0 40 C C 0.000001
0 40 C U 0.000001
0 40 C G 0.000470
0 40 C - 0.000007
0 40 U A 0.210637
0 40 U C 0.002522
0 40 U U -0.334202
0 40 U G 0.021696
0 40 U - 0.000009
0 40 G A -0.010444
0 40 G C 0.000002
0 40 G U 0.001493
0 40 G G 0.009021
0 40 G - 0.000120
0 40 - A 0.006176
0 40 - C 0.000005
0 40 - U 0.001689
0 40 - G -0.003681
0 40 - - -0.000001
0 41 A A 0.001300
0 41 A C -0.012176
0 41 A U -0.000001
0 41 A G -0.000006
0 41 A - 0.000005
0 41 C A -0.000017
0 41 C C 0.020570
0 41 C U 0.000010
0 41 C G 0.000009
0 41 C - 0.000001
0 41 U A 0.007735
0 41 U C 0.003460
0 41 U U -0.000014
0 41 U G 0.000441
0 41 U - 0.000009
0 41 G A -0.000538
0 41 G C 0.092021
0 41 G U 0.002756
0 41 G G -0.219994
0 41 G - -0.000006
0 41 - A 0.001169
0 41 - C 0.005355
0 41 - U 0.001709
0 41 - G 0.000010
0 41 - - 0.000014
0 42 A A -0.135309
0 42 A C 0.000009
0 42 A U 0.033392
0 42 A G 0.000862
0 42 A - -0.000006
0 42 C A 0.003341
0 42 C C -0.000004
0 42 C U -0.002380
0 42 C G 0.000009
0 42 C - 0.000009
0 42 U A 0.000419
0 42 U C 0.000010
0 42 U U 0.001161
0 42 U G 0.000002
0 42 U - -0.000007
0 42 G A -0.000536
0 42 G C 0.000229
0 42 G U -0.001588
0 42 G G -0.000006
0 42 G - 0.000009
0 42 - A 0.126705
0 42 - C 0.000227
0 42 - U -0.058258
0 42 - G 0.000009
0 42 - - 0.000560
0 43 A A 0.003545
0 43 A C -0.000069
0 43 A U 0.000992
0 43 A G -0.164421
0 43 A - 0.000005
0 43 C A -0.073193
0 43 C C -0.000003
0 43 C U 0.000007
0 43 C G 0.092262
0 43 C - 0.000000
0 43 U A 0.004208
0 43 U C 0.000988
0 43 U U 0.002878
0 43 U G -0.219013
0 43 U - 0.000405
0 43 G A -0.000859
0 43 G C -0.000039
0 43 G U -0.225568
0 43 G G 0.413057
0 43 G - -0.000005
0 43 - A 0.158600
0 43 - C -0.046912
0 43 - U -0.000008
0 43 - G 0.013553
0 43 - - 0.000842
0 44 A A -0.392851
0 44 A C -0.002420
0 44 A U 0.962966
0 44 A G -0.212833
0 44 A - -0.000006
0 44 C A 0.000000
0 44 C C -0.000242
0 44 C U -0.012946
0 44 C G 0.000214
0 44 C - -0.000011
0 44 U A -0.000005
0 44 U C -0.009112
0 44 U U -0.131173
0 44 U G -0.000327
0 44 U - -0.000006
0 44 G A -0.000013
0 44 G C -0.000700
0 44 G U -0.028444
0 44 G G -0.000785
0 44 G - -0.000005
0 44 - A -0.000011
0 44 - C -0.000003
0 44 - U -0.085093
0 44 - G -0.000008
0 44 - - -0.000002
0 45 A A 0.000010
0 45 A C 0.000038
0 45 A U -0.000008
0 45 A G -0.000008
0 45 A - -0.010856
0 45 C A -0.000001
0 45 C C -0.000009
0 45 C U 0.000010
0 45 C G 0.000004
0 45 C - -0.000276
0 45 U A -0.000003
0 45 U C 0.000003
0 45 U U -0.000005
0 45 U G -0.000007
0 45 U - 0.003050
0 45 G A -0.000007
0 45 G C -0.021404
0 45 G U 0.000009
0 45 G G -0.000006
0 45 G - 0.006277
0 45 - A 0.000005
0 45 - C 0.000002
0 45 - U -0.000002
0 45 - G 0.000003
0 45 - - 0.001634
0 46 A A -0.000003
0 46 A C 0.000437
0 46 A U -0.000002
0 46 A G 0.000010
0 46 A - -0.011045
0 46 C A 0.000009
0 46 C C 0.000009
0 46 C U -0.000002
0 46 C G 0.000000
0 46 C - -0.000279
0 46 U A 0.000004
0 46 U C -0.000005
0 46 U U -0.000005
0 46 U G 0.000002
0 46 U - 0.003185
0 46 G A 0.000003
0 46 G C 0.000002
0 46 G U 0.000000
0 46 G G -0.007548
0 46 G - 0.004836
0 46 - A 0.000487
0 46 - C 0.000000
0 46 - U 0.000010
0 46 - G 0.000008
0 46 - - -0.000609
0 47 A A -0.000003
0 47 A C 0.000007
0 47 A U 0.000006
0 47 A G -0.000002
0 47 A - -0.010860
0 47 C A 0.000006
0 47 C C 0.000000
0 47 C U 0.000006
0 47 C G -0.000000
0 47 C - -0.000314
0 47 U A -0.000001
0 47 U C -0.000005
0 47 U U 0.000008
0 47 U G 0.000794
0 47 U - 0.001546
0 47 G A -0.013213
0 47 G C -0.000001
0 47 G U 0.000000
0 47 G G 0.000008
0 47 G - 0.008185
0 47 - A -0.000009
0 47 - C -0.000009
0 47 - U 0.000006
0 47 - G -0.000003
0 47 - - 0.001037
0 48 A A 0.000008
0 48 A C -0.000002
0 48 A U -0.000007
0 48 A G -0.000005
0 48 A - -0.009644
0 48 C A 0.000011
0 48 C C -0.000008
0 48 C U 0.000010
0 48 C G -0.000006
0 48 C - -0.000246
0 48 U A -0.000006
0 48 U C 0.000010
0 48 U U 0.000015
0 48 U G -0.000006
0 48 U - 0.003091
0 48 G A -0.040733
0 48 G C 0.000009
0 48 G U -0.000007
0 48 G G 0.000010
0 48 G - 0.009731
0 48 - A 0.000584
0 48 - C 0.000003
0 48 - U -0.000007
0 48 - G 0.000001
0 48 - - 0.001609
0 49 A A 0.000004
0 49 A C 0.000077
0 49 A U 0.000426
0 49 A G 0.000009
0 49 A - -0.010596
0 49 C A 0.000010
0 49 C C -0.000008
0 49 C U 0.000004
0 49 C G 0.000010
0 49 C - -0.000205
0 49 U A 0.000006
0 49 U C 0.000008
0 49 U U 0.000002
0 49 U G -0.000006
0 49 U - 0.001986
0 49 G A -0.034494
0 49 G C -0.000004
0 49 G U -0.000006
0 49 G G 0.000008
0 49 G - 0.005470
0 49 - A -0.000007
0 49 - C -0.000004
0 49 - U 0.000002
0 49 - G -0.000006
0 49 - - 0.001381
0 50 A A 0.000715
0 50 A C -0.000004
0 50 A U 0.000506
0 50 A G -0.000003
0 50 A - -0.010860
0 50 C A 0.000009
0 50 C C 0.000009
0 50 C U -0.000001
0 50 C G -0.000007
0 50 C - -0.000234
0 50 U A -0.000003
0 50 U C 0.001335
0 50 U U -0.000005
0 50 U G 0.000003
0 50 U - 0.001876
0 50 G A -0.000009
0 50 G C -0.000007
0 50 G U 0.000004
0 50 G G -0.026542
0 50 G - 0.007427
0 50 - A 0.000009
0 50 - C 0.000009
0 50 - U 0.001175
0 50 - G 0.000008
0 50 - - 0.000666
0 51 A A -0.001692
0 51 A C 0.000575
0 51 A U 0.000793
0 51 A G 0.022672
0 51 A - -0.248416
0 51 C A -0.000005
0 51 C C 0.000002
0 51 C U 0.000010
0 51 C G -0.000977
0 51 C - 0.000645
0 51 U A -0.000550
0 51 U C 0.000804
0 51 U U 0.000948
0 51 U G 0.013467
0 51 U - 0.000429
0 51 G A 0.237817
0 51 G C -0.000015
0 51 G U 0.001363
0 51 G G -0.106365
0 51 G - 0.004593
0 51 - A -0.000006
0 51 - C 0.000003
0 51 - U -0.000006
0 51 - G 0.000992
0 51 - - 0.000004
0 52 A A 0.005152
0 52 A C -0.111672
0 52 A U 0.000742
0 52 A G -0.000151
0 52 A - -0.000004
0 52 C A -0.000005
0 52 C C 0.101695
0 52 C U -0.032667
0 52 C G -0.000002
0 52 C - -0.000003
0 52 U A 0.002867
0 52 U C -0.123030
0 52 U U -0.000009
0 52 U G 0.000475
0 52 U - 0.000003
0 52 G A -0.292253
0 52 G C 0.432949
0 52 G U 0.000557
0 52 G G -0.000090
0 52 G - -0.000002
0 52 - A -0.000008
0 52 - C 0.003951
0 52 - U 0.041832
0 52 - G -0.046050
0 52 - - 0.000858
0 53 A A 0.019510
0 53 A C 0.000010
0 53 A U -0.062565
0 53 A G 0.000003
0 53 A - 0.000004
0 53 C A -0.002135
0 53 C C 0.000010
0 53 C U 0.003673
0 53 C G -0.000005
0 53 C - -0.000002
0 53 U A 0.001165
0 53 U C 0.000339
0 53 U U -0.012047
0 53 U G 0.000006
0 53 U - 0.000001
0 53 G A -0.030299
0 53 G C 0.000007
0 53 G U -0.001996
0 53 G G 0.001678
0 53 G - 0.000009
0 53 - A -0.097804
0 53 - C -0.000006
0 53 - U 0.141046
0 53 - G -0.000005
0 53 - - -0.000008
0 54 A A -0.049153
0 54 A C -0.000003
0 54 A U 0.000003
0 54 A G 0.000688
0 54 A - -0.000001
0 54 C A 0.096220
0 54 C C 0.000010
0 54 C U -0.000001
0 54 C G -0.024325
0 54 C - 0.000006
0 54 U A 0.002076
0 54 U C 0.000005
0 54 U U 0.000896
0 54 U G 0.000538
0 54 U - 0.000004
0 54 G A -0.061489
0 54 G C -0.000006
0 54 G U 0.000007
0 54 G G 0.000943
0 54 G - -0.000006
0 54 - A 0.007942
0 54 - C 0.000883
0 54 - U -0.000008
0 54 - G -0.004083
0 54 - - -0.000006
0 55 A A 0.000002
0 55 A C -0.012098
0 55 A U 0.000781
0 55 A G 0.000001
0 55 A - 0.000445
0 55 C A 0.000952
0 55 C C 0.173274
0 55 C U -0.131865
0 55 C G -0.000010
0 55 C - -0.000010
0 55 U A 0.000005
0 55 U C -0.001059
0 55 U U -0.000008
0 55 U G 0.000850
0 55 U - -0.000008
0 55 G A -0.007075
0 55 G C 0.000437
0 55 G U 0.000003
0 55 G G 0.000001
0 55 G - 0.000065
0 55 - A -0.000003
0 55 - C -0.000620
0 55 - U -0.000010
0 55 - G -0.000009
0 55 - - -0.000010
0 56 A A 0.000001
0 56 A C 0.000097
0 56 A U -0.152753
0 56 A G 0.128765
0 56 A - 0.000003
0 56 C A 0.000008
0 56 C C -0.075714
0 56 C U 0.030162
0 56 C G 0.141551
0 56 C - 0.000001
0 56 U A -0.000003
0 56 U C 0.142553
0 56 U U 0.003381
0 56 U G -0.139184
0 56 U - 0.000008
0 56 G A -0.000006
0 56 G C 0.010515
0 56 G U 0.000266
0 56 G G -0.197695
0 56 G - 0.000003
0 56 - A -0.000004
0 56 - C -0.003639
0 56 - U -0.012648
0 56 - G 0.101906
0 56 - - 0.000008
0 57 A A -0.000001
0 57 A C -0.000004
0 57 A U 0.000007
0 57 A G -0.006500
0 57 A - -0.000008
0 57 C A 0.000007
0 57 C C -0.000010
0 57 C U 0.000007
0 57 C G -0.000268
0 57 C - -0.000004
0 57 U A 0.000001
0 57 U C 0.000939
0 57 U U -0.000009
0 57 U G 0.002538
0 57 U - 0.000007
0 57 G A 0.000007
0 57 G C 0.000002
0 57 G U -0.000004
0 57 G G -0.002227
0 57 G - 0.000007
0 57 - A 0.000003
0 57 - C -0.000003
0 57 - U 0.000007
0 57 - G 0.001010
0 57 - - -0.000007
0 58 A A 0.000003
0 58 A C -0.000009
0 58 A U -0.011078
0 58 A G 0.000409
0 58 A - -0.000009
0 58 C A -0.000009
0 58 C C -0.000009
0 58 C U -0.000261
0 58 C G -0.000009
0 58 C - -0.000009
0 58 U A -0.000009
0 58 U C -0.000006
0 58 U U 0.003152
0 58 U G 0.000007
0 58 U - -0.000004
0 58 G A -0.000003
0 58 G C -0.000009
0 58 G U -0.001974
0 58 G G -0.000006
0 58 G - -0.000009
0 58 - A 0.000251
0 58 - C -0.000009
0 58 - U 0.000778
0 58 - G 0.000008
0 58 - - -0.000009
0 59 A A 0.001093
0 59 A C 0.001718
0 59 A U -0.057028
0 59 A G 0.020201
0 59 A - -0.000308
0 59 C A 0.270939
0 59 C C 0.001309
0 59 C U 0.008549
0 59 C G 0.000000
0 59 C - -0.000015
0 59 U A 0.005904
0 59 U C 0.001126
0 59 U U 0.018282
0 59 U G -0.010541
0 59 U - 0.000690
0 59 G A -0.305776
0 59 G C 0.014105
0 59 G U -0.015169
0 59 G G 0.000007
0 59 G - 0.000865
0 59 - A 0.001768
0 59 - C -0.003614
0 59 - U 0.005601
0 59 - G 0.002290
0 59 - - 0.001061
0 60 A A 0.005394
0 60 A C -0.000003
0 60 A U 0.000488
0 60 A G 0.000509
0 60 A - 0.000994
0 60 C A 0.026385
0 60 C C 0.001259
0 60 C U 0.000000
0 60 C G 0.000182
0 60 C - 0.000441
0 60 U A 0.020900
0 60 U C -0.000011
0 60 U U 0.001284
0 60 U G 0.002466
0 60 U - 0.019159
0 60 G A -0.201060
0 60 G C 0.000013
0 60 G U -0.000003
0 60 G G 0.000011
0 60 G - 0.000643
0 60 - A 0.000002
0 60 - C 0.002705
0 60 - U 0.000009
0 60 - G 0.000011
0 60 - - 0.001098
0 61 A A 0.001075
0 61 A C 0.000414
0 61 A U 0.021375
0 61 A G 0.000010
0 61 A - -0.059117
0 61 C A 0.168584
0 61 C C -0.563967
0 61 C U 0.025295
0 61 C G 0.000004
0 61 C - 0.000130
0 61 U A -0.022406
0 61 U C 0.002247
0 61 U U -0.044893
0 61 U G 0.000001
0 61 U - 0.155862
0 61 G A -0.048594
0 61 G C 0.000003
0 61 G U -0.001702
0 61 G G 0.000950
0 61 G - 0.000590
0 61 - A 0.312080
0 61 - C 0.059290
0 61 - U 0.001848
0 61 - G -0.000289
0 61 - - -0.026603
0 62 A A -0.013230
0 62 A C -0.000001
0 62 A U 0.000002
0 62 A G 0.000002
0 62 A - -0.000289
0 62 C A 0.019398
0 62 C C 0.000004
0 62 C U 0.000007
0 62 C G 0.000011
0 62 C - -0.000010
0 62 U A -0.056860
0 62 U C 0.000940
0 62 U U 0.000002
0 62 U G 0.000668
0 62 U - 0.029271
0 62 G A -0.000556
0 62 G C -0.000005
0 62 G U -0.000006
0 62 G G -0.000009
0 62 G - -0.006700
0 62 - A 0.003767
0 62 - C -0.000005
0 62 - U -0.000004
0 62 - G -0.000006
0 62 - - -0.000142
0 63 A A -0.000006
0 63 A C 0.000001
0 63 A U -0.004179
0 63 A G 0.011036
0 63 A - 0.000639
0 63 C A -0.000003
0 63 C C 0.000008
0 63 C U 0.000008
0 63 C G -0.000583
0 63 C - -0.000001
0 63 U A 0.000212
0 63 U C 0.000685
0 63 U U 0.000775
0 63 U G -0.340690
0 63 U - 0.001807
0 63 G A 0.000987
0 63 G C -0.124382
0 63 G U -0.000505
0 63 G G 0.408003
0 63 G - 0.000983
0 63 - A -0.000008
0 63 - C 0.001655
0 63 - U -0.000800
0 63 - G 0.005115
0 63 - - -0.000074
0 64 A A -0.000006
0 64 A C -0.003368
0 64 A U -0.007556
0 64 A G -0.000002
0 64 A - -0.000792
0 64 C A 0.000000
0 64 C C -0.000680
0 64 C U 0.000457
0 64 C G -0.000007
0 64 C - 0.000004
0 64 U A -0.043565
0 64 U C 0.334015
0 64 U U -0.220561
0 64 U G 0.000004
0 64 U - 0.000200
0 64 G A 0.000001
0 64 G C -0.048213
0 64 G U 0.004839
0 64 G G -0.000010
0 64 G - -0.000179
0 64 - A 0.000426
0 64 - C -0.000668
0 64 - U 0.000078
0 64 - G 0.001273
0 64 - - -0.000241
0 65 A A -0.000008
0 65 A C -0.008058
0 65 A U -0.000009
0 65 A G 0.000003
0 65 A - 0.000000
0 65 C A -0.000009
0 65 C C -0.000255
0 65 C U -0.000009
0 65 C G 0.000001
0 65 C - -0.000001
0 65 U A -0.000004
0 65 U C 0.002334
0 65 U U -0.000001
0 65 U G 0.000943
0 65 U - -0.000005
0 65 G A -0.000009
0 65 G C -0.001977
0 65 G U 0.000001
0 65 G G 0.000000
0 65 G - -0.000009
0 65 - A 0.000009
0 65 - C 0.001238
0 65 - U -0.000003
0 65 - G -0.000001
0 65 - - -0.000000
0 66 A A -0.013819
0 66 A C 0.033118
0 66 A U 0.000006
0 66 A G -0.000419
0 66 A - 0.000009