# NB_STEPS 3000
# UP_FREQ 1000
# TEMP 1.000000
# LAMBDA 0.010000
# ID_THRES 1.000000
# ALPHA 1.246141
0 0 A A 0.000001
0 0 C C 0.000530
0 0 U U 0.000006
0 0 G G 0.001254
0 0 - - -0.007986
0 1 A A 0.000015
0 1 A C 0.000015
0 1 A U 0.000015
0 1 A G 0.000015
0 1 A - 0.004841
0 1 C A 0.000015
0 1 C C 0.000015
0 1 C U 0.000015
0 1 C G 0.000002
0 1 C - 0.038408
0 1 U A 0.000015
0 1 U C 0.000015
0 1 U U 0.000015
0 1 U G 0.000015
0 1 U - 0.017687
0 1 G A 0.000015
0 1 G C 0.000015
0 1 G U 0.000015
0 1 G G 0.000013
0 1 G - 0.004757
0 1 - A 0.005815
0 1 - C 0.004969
0 1 - U 0.016678
0 1 - G 0.048935
0 1 - - -0.329241
0 2 A A 0.000005
0 2 A C 0.000009
0 2 A U 0.000009
0 2 A G -0.000004
0 2 A - -0.000004
0 2 C A -0.000004
0 2 C C 0.000483
0 2 C U 0.000001
0 2 C G -0.000004
0 2 C - -0.000001
0 2 U A 0.000007
0 2 U C -0.000002
0 2 U U 0.000004
0 2 U G -0.000004
0 2 U - -0.000004
0 2 G A -0.000004
0 2 G C 0.001059
0 2 G U -0.000004
0 2 G G -0.000004
0 2 G - -0.000004
0 2 - A 0.000415
0 2 - C -0.014768
0 2 - U -0.009002
0 2 - G 0.001850
0 2 - - 0.004278
0 3 A A 0.000000
0 3 A C 0.000004
0 3 A U -0.000007
0 3 A G 0.000000
0 3 A - 0.000000
0 3 C A 0.000000
0 3 C C 0.000544
0 3 C U -0.000006
0 3 C G -0.000001
0 3 C - 0.000000
0 3 U A 0.000000
0 3 U C 0.000010
0 3 U U 0.000000
0 3 U G 0.000000
0 3 U - 0.000000
0 3 G A 0.000000
0 3 G C 0.000563
0 3 G U -0.000001
0 3 G G 0.000000
0 3 G - 0.000000
0 3 - A -0.000007
0 3 - C -0.026559
0 3 - U -0.016992
0 3 - G 0.007236
0 3 - - 0.000798
0 4 A A 0.000011
0 4 A C 0.000011
0 4 A U 0.000011
0 4 A G -0.000002
0 4 A - 0.000011
0 4 C A 0.000011
0 4 C C 0.000009
0 4 C U 0.000011
0 4 C G 0.000546
0 4 C - 0.000011
0 4 U A 0.000011
0 4 U C 0.000011
0 4 U U 0.000011
0 4 U G -0.000005
0 4 U - 0.000011
0 4 G A -0.000002
0 4 G C 0.000011
0 4 G U 0.000011
0 4 G G 0.000581
0 4 G - 0.000011
0 4 - A -0.005886
0 4 - C 0.005977
0 4 - U 0.000103
0 4 - G -0.038962
0 4 - - -0.000003
0 5 A A -0.000003
0 5 A C 0.000010
0 5 A U -0.000002
0 5 A G -0.000009
0 5 A - -0.000003
0 5 C A -0.000003
0 5 C C -0.000008
0 5 C U 0.000480
0 5 C G -0.000003
0 5 C - -0.000003
0 5 U A -0.000003
0 5 U C 0.000007
0 5 U U 0.000001
0 5 U G -0.000003
0 5 U - -0.000003
0 5 G A -0.000003
0 5 G C -0.000003
0 5 G U 0.001036
0 5 G G -0.000003
0 5 G - -0.000003
0 5 - A 0.000612
0 5 - C -0.002115
0 5 - U -0.016953
0 5 - G 0.002657
0 5 - - 0.000477
0 6 A A -0.000000
0 6 A C 0.000012
0 6 A U 0.000012
0 6 A G 0.000000
0 6 A - -0.000003
0 6 C A -0.000005
0 6 C C 0.000012
0 6 C U 0.000012
0 6 C G 0.000554
0 6 C - 0.000012
0 6 U A 0.000012
0 6 U C 0.000012
0 6 U U 0.000012
0 6 U G 0.000007
0 6 U - 0.000012
0 6 G A 0.000012
0 6 G C 0.000012
0 6 G U 0.000012
0 6 G G 0.001601
0 6 G - 0.000012
0 6 - A -0.007522
0 6 - C 0.003786
0 6 - U 0.000005
0 6 - G -0.040539
0 6 - - -0.000004
0 7 A A 0.000006
0 7 A C -0.000005
0 7 A U 0.000006
0 7 A G 0.000006
0 7 A - 0.000006
0 7 C A 0.000006
0 7 C C 0.000619
0 7 C U 0.000011
0 7 C G 0.000006
0 7 C - 0.000006
0 7 U A 0.000006
0 7 U C -0.000001
0 7 U U 0.000006
0 7 U G 0.000006
0 7 U - 0.000006
0 7 G A 0.000006
0 7 G C 0.001950
0 7 G U 0.000006
0 7 G G 0.000006
0 7 G - 0.000006
0 7 - A -0.000312
0 7 - C -0.070773
0 7 - U 0.000916
0 7 - G 0.006790
0 7 - - -0.000007
0 8 A A -0.000000
0 8 A C -0.000000
0 8 A U 0.000000
0 8 A G -0.000000
0 8 A - -0.000000
0 8 C A -0.000001
0 8 C C -0.000000
0 8 C U 0.000537
0 8 C G -0.000000
0 8 C - -0.000000
0 8 U A -0.000001
0 8 U C -0.000000
0 8 U U 0.000009
0 8 U G -0.000000
0 8 U - -0.000000
0 8 G A -0.000000
0 8 G C -0.000000
0 8 G U 0.001399
0 8 G G -0.000000
0 8 G - -0.000000
0 8 - A -0.002927
0 8 - C 0.004753
0 8 - U -0.053882
0 8 - G 0.022397
0 8 - - -0.003796
0 9 A A 0.000010
0 9 A C 0.000002
0 9 A U 0.000002
0 9 A G 0.000002
0 9 A - 0.000002
0 9 C A 0.000646
0 9 C C 0.000002
0 9 C U 0.000002
0 9 C G -0.000001
0 9 C - 0.000002
0 9 U A 0.000012
0 9 U C 0.000002
0 9 U U 0.000002
0 9 U G 0.000002
0 9 U - 0.000010
0 9 G A 0.000660
0 9 G C 0.000012
0 9 G U 0.000002
0 9 G G 0.000002
0 9 G - 0.000002
0 9 - A -0.088705
0 9 - C -0.000007
0 9 - U 0.013729
0 9 - G 0.002612
0 9 - - -0.000754
0 10 A A 0.000002
0 10 A C 0.000002
0 10 A U 0.000002
0 10 A G 0.000007
0 10 A - 0.000002
0 10 C A 0.000691
0 10 C C 0.000002
0 10 C U 0.000005
0 10 C G 0.000013
0 10 C - 0.000004
0 10 U A -0.000002
0 10 U C 0.000002
0 10 U U 0.000002
0 10 U G -0.000004
0 10 U - 0.000002
0 10 G A -0.000000
0 10 G C 0.000002
0 10 G U 0.000002
0 10 G G 0.002877
0 10 G - -0.000001
0 10 - A -0.005592
0 10 - C 0.001251
0 10 - U 0.002477
0 10 - G -0.095823
0 10 - - 0.006595
0 11 A A 0.000003
0 11 A C -0.000005
0 11 A U -0.000005
0 11 A G 0.000008
0 11 A - -0.000005
0 11 C A 0.000002
0 11 C C 0.000001
0 11 C U -0.000005
0 11 C G 0.000461
0 11 C - -0.000005
0 11 U A -0.000002
0 11 U C 0.000005
0 11 U U -0.000005
0 11 U G 0.000005
0 11 U - -0.000005
0 11 G A 0.000002
0 11 G C 0.000003
0 11 G U 0.000558
0 11 G G -0.000001
0 11 G - -0.000005
0 11 - A 0.003187
0 11 - C -0.006689
0 11 - U -0.000459
0 11 - G -0.011096
0 11 - - 0.008549
0 12 A A 0.000005
0 12 A C 0.000001
0 12 A U 0.000009
0 12 A G 0.000005
0 12 A - 0.000005
0 12 C A 0.000009
0 12 C C 0.000010
0 12 C U 0.000609
0 12 C G 0.000005
0 12 C - 0.000005
0 12 U A 0.000005
0 12 U C 0.000001
0 12 U U 0.000000
0 12 U G 0.000005
0 12 U - 0.000005
0 12 G A 0.000005
0 12 G C 0.000625
0 12 G U 0.001270
0 12 G G 0.000005
0 12 G - 0.000005
0 12 - A 0.001458
0 12 - C -0.068602
0 12 - U -0.006320
0 12 - G 0.010028
0 12 - - 0.000873
0 13 A A -0.000001
0 13 A C -0.000001
0 13 A U -0.000001
0 13 A G 0.000169
0 13 A - -0.000001
0 13 C A -0.000001
0 13 C C -0.000001
0 13 C U -0.000001
0 13 C G 0.015249
0 13 C - 0.000009
0 13 U A -0.000001
0 13 U C -0.000001
0 13 U U -0.000001
0 13 U G 0.004215
0 13 U - -0.000001
0 13 G A -0.000001
0 13 G C -0.000001
0 13 G U -0.000001
0 13 G G 0.003528
0 13 G - -0.000001
0 13 - A 0.107838
0 13 - C 0.000376
0 13 - U 0.000007
0 13 - G -0.278890
0 13 - - 0.001409
0 14 A A 0.000010
0 14 A C 0.000010
0 14 A U 0.000010
0 14 A G 0.000043
0 14 A - 0.000010
0 14 C A 0.000010
0 14 C C 0.000010
0 14 C U 0.000015
0 14 C G 0.010320
0 14 C - 0.000010
0 14 U A 0.000010
0 14 U C 0.000010
0 14 U U 0.000010
0 14 U G 0.003403
0 14 U - 0.000010
0 14 G A 0.000010
0 14 G C 0.000010
0 14 G U 0.000010
0 14 G G 0.003329
0 14 G - 0.000010
0 14 - A 0.024660
0 14 - C 0.000046
0 14 - U 0.000003
0 14 - G -0.177482
0 14 - - 0.000009
0 15 A A 0.000012
0 15 A C 0.000012
0 15 A U 0.000012
0 15 A G 0.000009
0 15 A - 0.000012
0 15 C A 0.000012
0 15 C C 0.000012
0 15 C U 0.000012
0 15 C G 0.000695
0 15 C - 0.000007
0 15 U A 0.000012
0 15 U C 0.000012
0 15 U U 0.000012
0 15 U G 0.000775
0 15 U - 0.000012
0 15 G A 0.000012
0 15 G C 0.000012
0 15 G U 0.000012
0 15 G G 0.002526
0 15 G - 0.000012
0 15 - A -0.000008
0 15 - C 0.000948
0 15 - U 0.001135
0 15 - G -0.100443
0 15 - - -0.000006
0 16 A A 0.000012
0 16 A C 0.000012
0 16 A U 0.000012
0 16 A G 0.000010
0 16 A - 0.000012
0 16 C A 0.000012
0 16 C C 0.000012
0 16 C U 0.000012
0 16 C G 0.000702
0 16 C - -0.000005
0 16 U A 0.000012
0 16 U C 0.000012
0 16 U U 0.000011
0 16 U G 0.000008
0 16 U - 0.000012
0 16 G A 0.000012
0 16 G C 0.000012
0 16 G U 0.000012
0 16 G G 0.002520
0 16 G - 0.000012
0 16 - A 0.000673
0 16 - C 0.008102
0 16 - U 0.003033
0 16 - G -0.111259
0 16 - - 0.000409
0 17 A A -0.000009
0 17 A C 0.000005
0 17 A U -0.000007
0 17 A G 0.000005
0 17 A - 0.000005
0 17 C A 0.000463
0 17 C C 0.000005
0 17 C U 0.000005
0 17 C G 0.000005
0 17 C - 0.000010
0 17 U A -0.000000
0 17 U C -0.000009
0 17 U U 0.000005
0 17 U G 0.000005
0 17 U - 0.000005
0 17 G A -0.000005
0 17 G C 0.000005
0 17 G U -0.000008
0 17 G G 0.000547
0 17 G - 0.000005
0 17 - A -0.004401
0 17 - C -0.006235
0 17 - U -0.004816
0 17 - G 0.000680
0 17 - - 0.008362
0 18 A A 0.000005
0 18 A C -0.000001
0 18 A U -0.000001
0 18 A G -0.000004
0 18 A - -0.000001
0 18 C A 0.000012
0 18 C C -0.000001
0 18 C U -0.000001
0 18 C G 0.000628
0 18 C - -0.000001
0 18 U A 0.000004
0 18 U C -0.000001
0 18 U U -0.000001
0 18 U G 0.000009
0 18 U - -0.000001
0 18 G A -0.000001
0 18 G C -0.000001
0 18 G U -0.000001
0 18 G G 0.002110
0 18 G - -0.000001
0 18 - A -0.030368
0 18 - C 0.003068
0 18 - U 0.000001
0 18 - G -0.045626
0 18 - - -0.000006
0 19 A A 0.000002
0 19 A C -0.000008
0 19 A U 0.000002
0 19 A G 0.000004
0 19 A - 0.000002
0 19 C A 0.000009
0 19 C C -0.000005
0 19 C U 0.000450
0 19 C G -0.000009
0 19 C - 0.000005
0 19 U A 0.000002
0 19 U C 0.000002
0 19 U U -0.000001
0 19 U G 0.000001
0 19 U - 0.000002
0 19 G A 0.000002
0 19 G C 0.000002
0 19 G U 0.000008
0 19 G G 0.000863
0 19 G - -0.000009
0 19 - A 0.002014
0 19 - C -0.003348
0 19 - U -0.010057
0 19 - G -0.006745
0 19 - - 0.012544
0 20 A A 0.000013
0 20 A C 0.000013
0 20 A U 0.000004
0 20 A G 0.000013
0 20 A - 0.000013
0 20 C A 0.000013
0 20 C C 0.000013
0 20 C U 0.003942
0 20 C G 0.000013
0 20 C - 0.000012
0 20 U A 0.000013
0 20 U C 0.000013
0 20 U U 0.002803
0 20 U G 0.000013
0 20 U - 0.000013
0 20 G A 0.000013
0 20 G C 0.000010
0 20 G U 0.000582
0 20 G G 0.000826
0 20 G - 0.000013
0 20 - A 0.009470
0 20 - C -0.004274
0 20 - U -0.202127
0 20 - G 0.041048
0 20 - - 0.019143
0 21 A A -0.000001
0 21 A C -0.000006
0 21 A U -0.000006
0 21 A G -0.000006
0 21 A - -0.000006
0 21 C A 0.000599
0 21 C C -0.000006
0 21 C U -0.000006
0 21 C G -0.000006
0 21 C - -0.000007
0 21 U A 0.000012
0 21 U C -0.000006
0 21 U U -0.000006
0 21 U G -0.000006
0 21 U - -0.000006
0 21 G A 0.000627
0 21 G C -0.000006
0 21 G U 0.000006
0 21 G G -0.000006
0 21 G - -0.000006
0 21 - A -0.076204
0 21 - C 0.009065
0 21 - U -0.000062
0 21 - G -0.005692
0 21 - - 0.013617
0 22 A A 0.000014
0 22 A C 0.000014
0 22 A U 0.000014
0 22 A G 0.000581
0 22 A - 0.000014
0 22 C A 0.000014
0 22 C C -0.000001
0 22 C U 0.000014
0 22 C G 0.032863
0 22 C - 0.000014
0 22 U A 0.000014
0 22 U C 0.000014
0 22 U U 0.000014
0 22 U G 0.014139
0 22 U - 0.000014
0 22 G A 0.000014
0 22 G C 0.000014
0 22 G U 0.000014
0 22 G G 0.004116
0 22 G - 0.000014
0 22 - A 0.000917
0 22 - C 0.009280
0 22 - U 0.011747
0 22 - G -0.255045
0 22 - - 0.003975
0 23 A A 0.000005
0 23 A C -0.000005
0 23 A U 0.000005
0 23 A G 0.000005
0 23 A - 0.000005
0 23 C A 0.000005
0 23 C C 0.000731
0 23 C U 0.000005
0 23 C G 0.000005
0 23 C - 0.000001
0 23 U A 0.000005
0 23 U C 0.001109
0 23 U U 0.000005
0 23 U G 0.000005
0 23 U - 0.000005
0 23 G A 0.000005
0 23 G C 0.002723
0 23 G U 0.000005
0 23 G G 0.000012
0 23 G - 0.000005
0 23 - A 0.000909
0 23 - C -0.115945
0 23 - U 0.002425
0 23 - G -0.000006
0 23 - - 0.003994
0 24 A A 0.000010
0 24 A C 0.000010
0 24 A U 0.000010
0 24 A G 0.000308
0 24 A - 0.000010
0 24 C A 0.000010
0 24 C C 0.000010
0 24 C U 0.000011
0 24 C G 0.016153
0 24 C - 0.000010
0 24 U A 0.000010
0 24 U C 0.000010
0 24 U U 0.000010
0 24 U G 0.005558
0 24 U - 0.000010
0 24 G A 0.000010
0 24 G C 0.000010
0 24 G U 0.000010
0 24 G G 0.003748
0 24 G - 0.000010
0 24 - A 0.000010
0 24 - C 0.020690
0 24 - U 0.006900
0 24 - G -0.210432
0 24 - - 0.000791
0 25 A A 0.000001
0 25 A C 0.000001
0 25 A U 0.000001
0 25 A G 0.000010
0 25 A - 0.000001
0 25 C A 0.000001
0 25 C C 0.000001
0 25 C U 0.000660
0 25 C G 0.000009
0 25 C - 0.000001
0 25 U A 0.000001
0 25 U C 0.000001
0 25 U U 0.000001
0 25 U G 0.000413
0 25 U - 0.000001
0 25 G A 0.000001
0 25 G C 0.000001
0 25 G U 0.000001
0 25 G G 0.002337
0 25 G - 0.000001
0 25 - A -0.005639
0 25 - C 0.009437
0 25 - U 0.016155
0 25 - G -0.106832
0 25 - - 0.000610
0 26 A A 0.000002
0 26 A C 0.000002
0 26 A U -0.000003
0 26 A G 0.000002
0 26 A - 0.000002
0 26 C A 0.000002
0 26 C C 0.000002
0 26 C U 0.000573
0 26 C G 0.000002
0 26 C - 0.000002
0 26 U A 0.000002
0 26 U C 0.000009
0 26 U U 0.000003
0 26 U G 0.000002
0 26 U - 0.000002
0 26 G A 0.000002
0 26 G C 0.000006
0 26 G U 0.001682
0 26 G G 0.000002
0 26 G - 0.000002
0 26 - A 0.001626
0 26 - C -0.001204
0 26 - U -0.062233
0 26 - G 0.010630
0 26 - - 0.001792
0 27 A A -0.000002
0 27 A C -0.000002
0 27 A U 0.000006
0 27 A G -0.000008
0 27 A - -0.000002
0 27 C A -0.000002
0 27 C C -0.000002
0 27 C U 0.000007
0 27 C G 0.000470
0 27 C - -0.000002
0 27 U A 0.000009
0 27 U C 0.000005
0 27 U U 0.000005
0 27 U G -0.000005
0 27 U - -0.000002
0 27 G A -0.000002
0 27 G C -0.000002
0 27 G U -0.000008
0 27 G G 0.000518
0 27 G - -0.000002
0 27 - A -0.003554
0 27 - C -0.001995
0 27 - U -0.012504
0 27 - G 0.001704
0 27 - - 0.006623
0 28 A A -0.000003
0 28 A C 0.000007
0 28 A U -0.000003
0 28 A G -0.000003
0 28 A - -0.000003
0 28 C A -0.000003
0 28 C C -0.000003
0 28 C U 0.000635
0 28 C G -0.000003
0 28 C - -0.000002
0 28 U A -0.000003
0 28 U C 0.000002
0 28 U U -0.000003
0 28 U G -0.000002
0 28 U - -0.000003
0 28 G A -0.000003
0 28 G C 0.002107
0 28 G U 0.000009
0 28 G G -0.000003
0 28 G - -0.000003
0 28 - A 0.000417
0 28 - C -0.076793
0 28 - U -0.005540
0 28 - G 0.010366
0 28 - - 0.000008
0 29 A A 0.000010
0 29 A C 0.000001
0 29 A U 0.000010
0 29 A G 0.000010
0 29 A - 0.000010
0 29 C A 0.000010
0 29 C C 0.000630
0 29 C U 0.000010
0 29 C G 0.000010
0 29 C - 0.000010
0 29 U A 0.000010
0 29 U C 0.000012
0 29 U U -0.000001
0 29 U G 0.000010
0 29 U - 0.000010
0 29 G A 0.000010
0 29 G C 0.002060
0 29 G U 0.000010
0 29 G G 0.000010
0 29 G - 0.000010
0 29 - A 0.000003
0 29 - C -0.076058
0 29 - U 0.000713
0 29 - G 0.003390
0 29 - - -0.000007
0 30 A A 0.000009
0 30 A C -0.000002
0 30 A U 0.000010
0 30 A G 0.000009
0 30 A - 0.000009
0 30 C A -0.000005
0 30 C C 0.000455
0 30 C U 0.000009
0 30 C G 0.000009
0 30 C - 0.000009
0 30 U A 0.000009
0 30 U C 0.000004
0 30 U U -0.000003
0 30 U G 0.000009
0 30 U - 0.000009
0 30 G A 0.000009
0 30 G C 0.000905
0 30 G U -0.000001
0 30 G G 0.000009
0 30 G - 0.000009
0 30 - A 0.000905
0 30 - C -0.005234
0 30 - U -0.002538
0 30 - G 0.000008
0 30 - - 0.000602
0 31 A A 0.000001
0 31 A C 0.000001
0 31 A U 0.000059
0 31 A G 0.000001
0 31 A - 0.000001
0 31 C A 0.000001
0 31 C C 0.000008
0 31 C U 0.016066
0 31 C G 0.000001
0 31 C - 0.000001
0 31 U A 0.000001
0 31 U C 0.000001
0 31 U U 0.003402
0 31 U G 0.000001
0 31 U - 0.000001
0 31 G A 0.000001
0 31 G C 0.000001
0 31 G U 0.003331
0 31 G G 0.000001
0 31 G - 0.000001
0 31 - A 0.000004
0 31 - C 0.136697
0 31 - U -0.295730
0 31 - G -0.000003
0 31 - - 0.000001
0 32 A A -0.000001
0 32 A C 0.000008
0 32 A U 0.000008
0 32 A G -0.000001
0 32 A - 0.000008
0 32 C A 0.000480
0 32 C C 0.000008
0 32 C U 0.000002
0 32 C G 0.000006
0 32 C - 0.000008
0 32 U A 0.000008
0 32 U C 0.000008
0 32 U U 0.000008
0 32 U G -0.000005
0 32 U - 0.000008
0 32 G A 0.000008
0 32 G C 0.000008
0 32 G U 0.000008
0 32 G G 0.000938
0 32 G - 0.000008
0 32 - A -0.002378
0 32 - C 0.001916
0 32 - U -0.000076
0 32 - G -0.009519
0 32 - - 0.000004
0 33 A A -0.000003
0 33 A C -0.000003
0 33 A U 0.000005
0 33 A G -0.000003
0 33 A - -0.000003
0 33 C A 0.000001
0 33 C C -0.000003
0 33 C U 0.000533
0 33 C G -0.000003
0 33 C - -0.000005
0 33 U A -0.000003
0 33 U C -0.000003
0 33 U U -0.000001
0 33 U G -0.000003
0 33 U - -0.000003
0 33 G A 0.000010
0 33 G C -0.000003
0 33 G U 0.001409
0 33 G G -0.000003
0 33 G - -0.000003
0 33 - A -0.005861
0 33 - C 0.000770
0 33 - U -0.041307
0 33 - G 0.006938
0 33 - - 0.003182
0 34 A A 0.000009
0 34 A C 0.000001
0 34 A U 0.000010
0 34 A G 0.000001
0 34 A - 0.000001
0 34 C A 0.000651
0 34 C C 0.000001
0 34 C U 0.000001
0 34 C G 0.000001
0 34 C - -0.000004
0 34 U A 0.000202
0 34 U C 0.000001
0 34 U U 0.000001
0 34 U G 0.000001
0 34 U - 0.000001
0 34 G A 0.000648
0 34 G C 0.000007
0 34 G U 0.000001
0 34 G G 0.000001
0 34 G - 0.000001
0 34 - A -0.097274
0 34 - C 0.001689
0 34 - U -0.003873
0 34 - G 0.001462
0 34 - - 0.023638
0 35 A A 0.000005
0 35 A C 0.000001
0 35 A U 0.000005
0 35 A G 0.000005
0 35 A - 0.000005
0 35 C A 0.000005
0 35 C C 0.000609
0 35 C U 0.000005
0 35 C G -0.000000
0 35 C - 0.000005
0 35 U A 0.000005
0 35 U C -0.000007
0 35 U U 0.000005
0 35 U G 0.000005
0 35 U - 0.000005
0 35 G A 0.000005
0 35 G C 0.001911
0 35 G U 0.000005
0 35 G G 0.000005
0 35 G - 0.000005
0 35 - A 0.000202
0 35 - C -0.069772
0 35 - U -0.003322
0 35 - G 0.009131
0 35 - - -0.000001
0 36 A A 0.000010
0 36 A C 0.000010
0 36 A U -0.000006
0 36 A G 0.000010
0 36 A - 0.000010
0 36 C A 0.000010
0 36 C C 0.000009
0 36 C U 0.000591
0 36 C G -0.000006
0 36 C - 0.000010
0 36 U A 0.000010
0 36 U C -0.000008
0 36 U U 0.000007
0 36 U G 0.000010
0 36 U - 0.000010
0 36 G A 0.000010
0 36 G C 0.000001
0 36 G U 0.000733
0 36 G G 0.000010
0 36 G - 0.000010
0 36 - A 0.000010
0 36 - C -0.042484
0 36 - U -0.008405
0 36 - G -0.000012
0 36 - - 0.000002
0 37 A A 0.000002
0 37 A C 0.000003
0 37 A U -0.000004
0 37 A G -0.000005
0 37 A - 0.000002
0 37 C A 0.000002
0 37 C C -0.000007
0 37 C U 0.000475
0 37 C G 0.000002
0 37 C - 0.000002
0 37 U A 0.000002
0 37 U C -0.000009
0 37 U U 0.000009
0 37 U G 0.000002
0 37 U - 0.000002
0 37 G A 0.000002
0 37 G C 0.000565
0 37 G U -0.000009
0 37 G G -0.000008
0 37 G - 0.000002
0 37 - A -0.001479
0 37 - C -0.004739
0 37 - U -0.004744
0 37 - G 0.000303
0 37 - - 0.000007
0 38 A A 0.000001
0 38 A C 0.000001
0 38 A U 0.000001
0 38 A G 0.000010
0 38 A - 0.000001
0 38 C A 0.000001
0 38 C C -0.000003
0 38 C U 0.000001
0 38 C G 0.000558
0 38 C - 0.000001
0 38 U A 0.000008
0 38 U C 0.000001
0 38 U U 0.000001
0 38 U G -0.000000
0 38 U - 0.000001
0 38 G A 0.000001
0 38 G C 0.000001
0 38 G U 0.000001
0 38 G G 0.001527
0 38 G - 0.000001
0 38 - A -0.005005
0 38 - C 0.006182
0 38 - U -0.000014
0 38 - G -0.041912
0 38 - - 0.000929
0 39 A A -0.000001
0 39 A C -0.000006
0 39 A U 0.000008
0 39 A G 0.000008
0 39 A - 0.000008
0 39 C A 0.000009
0 39 C C -0.000001
0 39 C U 0.000542
0 39 C G 0.000008
0 39 C - 0.000008
0 39 U A 0.000008
0 39 U C -0.000007
0 39 U U 0.000008
0 39 U G 0.000008
0 39 U - 0.000008
0 39 G A 0.000006
0 39 G C 0.000571
0 39 G U 0.000008
0 39 G G 0.000008
0 39 G - 0.000008
0 39 - A -0.054343
0 39 - C -0.004196
0 39 - U -0.000005
0 39 - G 0.018262
0 39 - - 0.003585
0 40 A A 0.000016
0 40 A C 0.000003
0 40 A U 0.000003
0 40 A G 0.000003
0 40 A - 0.000003
0 40 C A 0.000796
0 40 C C 0.000003
0 40 C U 0.000003
0 40 C G 0.000015
0 40 C - 0.000003
0 40 U A 0.000457
0 40 U C 0.000003
0 40 U U 0.000003
0 40 U G 0.000007
0 40 U - 0.000003
0 40 G A 0.003303
0 40 G C 0.000003
0 40 G U 0.000003
0 40 G G 0.000003
0 40 G - 0.000003
0 40 - A -0.172463
0 40 - C 0.026801
0 40 - U 0.002142
0 40 - G 0.001134
0 40 - - 0.002215
0 41 A A 0.000009
0 41 A C 0.000006
0 41 A U 0.000006
0 41 A G 0.000006
0 41 A - 0.000006
0 41 C A 0.000681
0 41 C C 0.000006
0 41 C U 0.000006
0 41 C G 0.000010
0 41 C - 0.000006
0 41 U A 0.000581
0 41 U C 0.000006
0 41 U U 0.000006
0 41 U G 0.000006
0 41 U - 0.000006
0 41 G A 0.000752
0 41 G C 0.000009
0 41 G U 0.000006
0 41 G G 0.000006
0 41 G - 0.000006
0 41 - A -0.095014
0 41 - C 0.004042
0 41 - U 0.003012
0 41 - G -0.000761
0 41 - - -0.000000
0 42 A A -0.000001
0 42 A C -0.000001
0 42 A U -0.000006
0 42 A G -0.000001
0 42 A - -0.000001
0 42 C A -0.000001
0 42 C C -0.000008
0 42 C U 0.000504
0 42 C G -0.000001
0 42 C - -0.000003
0 42 U A -0.000001
0 42 U C -0.000007
0 42 U U 0.000000
0 42 U G -0.000001
0 42 U - -0.000001
0 42 G A -0.000001
0 42 G C -0.000001
0 42 G U 0.001114
0 42 G G -0.000001
0 42 G - -0.000001
0 42 - A 0.001373
0 42 - C -0.009495
0 42 - U -0.027126
0 42 - G 0.012884
0 42 - - 0.000722
0 43 A A 0.000001
0 43 A C 0.000006
0 43 A U 0.000001
0 43 A G 0.000001
0 43 A - 0.000001
0 43 C A 0.000001
0 43 C C 0.000565
0 43 C U 0.000001
0 43 C G 0.000001
0 43 C - 0.000001
0 43 U A 0.000001
0 43 U C 0.000005
0 43 U U 0.000001
0 43 U G 0.000001
0 43 U - 0.000001
0 43 G A 0.000001
0 43 G C 0.001504
0 43 G U 0.000001
0 43 G G 0.000001
0 43 G - 0.000001
0 43 - A 0.011534
0 43 - C -0.058081
0 43 - U 0.001665
0 43 - G 0.000537
0 43 - - 0.000154
0 44 A A 0.000007
0 44 A C 0.000004
0 44 A U 0.000007
0 44 A G 0.000007
0 44 A - 0.000007
0 44 C A 0.000007
0 44 C C 0.000769
0 44 C U 0.000007
0 44 C G 0.000005
0 44 C - 0.000007
0 44 U A 0.000007
0 44 U C 0.001521
0 44 U U 0.000007
0 44 U G 0.000007
0 44 U - 0.000007
0 44 G A 0.000007
0 44 G C 0.002976
0 44 G U 0.000007
0 44 G G 0.000007
0 44 G - 0.000007
0 44 - A 0.011969
0 44 - C -0.135094
0 44 - U 0.000007
0 44 - G 0.001107
0 44 - - -0.000000
0 45 A A 0.000002
0 45 A C 0.000002
0 45 A U 0.000002
0 45 A G 0.000005
0 45 A - 0.000002
0 45 C A 0.000002
0 45 C C -0.000006
0 45 C U 0.000002
0 45 C G 0.000616
0 45 C - 0.000002
0 45 U A 0.000002
0 45 U C 0.000002
0 45 U U 0.000012
0 45 U G -0.000007
0 45 U - 0.000002
0 45 G A 0.000002
0 45 G C 0.000002
0 45 G U 0.000002
0 45 G G 0.001926
0 45 G - 0.000002
0 45 - A 0.004447
0 45 - C 0.000107
0 45 - U -0.000013
0 45 - G -0.068985
0 45 - - 0.000002
0 46 A A -0.000001
0 46 A C 0.000066
0 46 A U -0.000001
0 46 A G -0.000001
0 46 A - -0.000001
0 46 C A -0.000001
0 46 C C 0.004673
0 46 C U -0.000001
0 46 C G -0.000001
0 46 C - -0.000001
0 46 U A -0.000001
0 46 U C 0.003333
0 46 U U -0.000001
0 46 U G -0.000001
0 46 U - -0.000001
0 46 G A -0.000001
0 46 G C 0.003335
0 46 G U -0.000001
0 46 G G -0.000001
0 46 G - -0.000001
0 46 - A 0.009225
0 46 - C -0.175301
0 46 - U -0.000005
0 46 - G 0.017178
0 46 - - 0.000396
0 47 A A -0.000000
0 47 A C -0.000000
0 47 A U 0.000005
0 47 A G -0.000000
0 47 A - -0.000000
0 47 C A 0.000004
0 47 C C -0.000000
0 47 C U 0.000579
0 47 C G -0.000005
0 47 C - -0.000000
0 47 U A -0.000000
0 47 U C -0.000000
0 47 U U 0.000001
0 47 U G -0.000000
0 47 U - -0.000000
0 47 G A -0.000000
0 47 G C -0.000000
0 47 G U 0.001681
0 47 G G -0.000000
0 47 G - -0.000000
0 47 - A -0.000065
0 47 - C -0.000358
0 47 - U -0.062868
0 47 - G 0.009955
0 47 - - 0.002660
0 48 A A 0.000010
0 48 A C 0.000008
0 48 A U 0.000006
0 48 A G -0.000003
0 48 A - -0.000003
0 48 C A 0.000505
0 48 C C -0.000001
0 48 C U -0.000000
0 48 C G -0.000003
0 48 C - -0.000003
0 48 U A -0.000002
0 48 U C -0.000000
0 48 U U 0.000001
0 48 U G -0.000007
0 48 U - -0.000003
0 48 G A 0.000586
0 48 G C 0.000000
0 48 G U 0.000006
0 48 G G -0.000003
0 48 G - 0.000007
0 48 - A -0.004657
0 48 - C -0.000995
0 48 - U -0.020251
0 48 - G 0.001691
0 48 - - 0.001772
0 49 A A -0.000007
0 49 A C 0.000009
0 49 A U -0.000006
0 49 A G 0.000005
0 49 A - 0.000005
0 49 C A 0.000004
0 49 C C 0.000006
0 49 C U 0.000456
0 49 C G 0.000005
0 49 C - 0.000005
0 49 U A 0.000005
0 49 U C -0.000008
0 49 U U -0.000009
0 49 U G 0.000005
0 49 U - 0.000005
0 49 G A -0.000005
0 49 G C 0.000005
0 49 G U 0.000498
0 49 G G 0.000005
0 49 G - -0.000008
0 49 - A -0.002841
0 49 - C -0.001727
0 49 - U -0.007054
0 49 - G 0.001755
0 49 - - 0.004680
0 50 A A 0.000003
0 50 A C -0.000005
0 50 A U 0.000010
0 50 A G -0.000005
0 50 A - -0.000005
0 50 C A 0.000505
0 50 C C -0.000005
0 50 C U -0.000008
0 50 C G -0.000005
0 50 C - -0.000007
0 50 U A 0.000003
0 50 U C -0.000005
0 50 U U -0.000005
0 50 U G -0.000005
0 50 U - 0.000008
0 50 G A 0.000532
0 50 G C -0.000008
0 50 G U 0.000003
0 50 G G -0.000005
0 50 G - -0.000005
0 50 - A -0.027349
0 50 - C 0.000394
0 50 - U -0.006320
0 50 - G 0.007579
0 50 - - 0.000984
0 51 A A 0.000002
0 51 A C 0.000002
0 51 A U 0.000002
0 51 A G 0.000144
0 51 A - 0.000002
0 51 C A 0.000002
0 51 C C 0.000002
0 51 C U 0.000002
0 51 C G 0.012900
0 51 C - -0.000003
0 51 U A 0.000002
0 51 U C 0.000002
0 51 U U 0.000002
0 51 U G 0.003776
0 51 U - 0.000002
0 51 G A 0.000002
0 51 G C 0.000002
0 51 G U 0.000002
0 51 G G 0.003460
0 51 G - 0.000002
0 51 - A 0.014843
0 51 - C 0.002622
0 51 - U 0.000958
0 51 - G -0.182274
0 51 - - 0.000009
0 52 A A 0.000012
0 52 A C 0.000009
0 52 A U 0.000012
0 52 A G 0.000012
0 52 A - 0.000012
0 52 C A 0.000012
0 52 C C 0.000589
0 52 C U 0.000012
0 52 C G 0.000008
0 52 C - 0.000012
0 52 U A 0.000012
0 52 U C 0.000008
0 52 U U 0.000002
0 52 U G 0.000012
0 52 U - 0.000012
0 52 G A 0.000012
0 52 G C 0.001794
0 52 G U 0.000012
0 52 G G 0.000012
0 52 G - 0.000012
0 52 - A -0.000002
0 52 - C -0.060891
0 52 - U -0.005945
0 52 - G 0.003275
0 52 - - 0.005888
0 53 A A 0.000010
0 53 A C -0.000006
0 53 A U 0.000000
0 53 A G -0.000004
0 53 A - -0.000006
0 53 C A 0.000484
0 53 C C -0.000006
0 53 C U -0.000006
0 53 C G -0.000002
0 53 C - -0.000006
0 53 U A 0.000001
0 53 U C -0.000006
0 53 U U -0.000006
0 53 U G 0.000004
0 53 U - -0.000006
0 53 G A 0.000004
0 53 G C -0.000006
0 53 G U -0.000006
0 53 G G 0.000576
0 53 G - 0.000006
0 53 - A -0.009226
0 53 - C 0.000002
0 53 - U -0.003528
0 53 - G -0.004118
0 53 - - 0.000754
0 54 A A 0.000011
0 54 A C -0.000003
0 54 A U -0.000003
0 54 A G -0.000003
0 54 A - -0.000003
0 54 C A 0.000010
0 54 C C -0.000000
0 54 C U -0.000003
0 54 C G 0.000714
0 54 C - -0.000003
0 54 U A 0.000006
0 54 U C -0.000003
0 54 U U -0.000003
0 54 U G -0.000001
0 54 U - -0.000003
0 54 G A 0.001651
0 54 G C -0.000003
0 54 G U -0.000003
0 54 G G 0.000006
0 54 G - -0.000003
0 54 - A -0.006533
0 54 - C 0.001816
0 54 - U 0.010193
0 54 - G -0.111554
0 54 - - -0.000004
0 55 A A 0.000003
0 55 A C 0.000003
0 55 A U 0.000003
0 55 A G 0.000011
0 55 A - 0.000003
0 55 C A 0.000003
0 55 C C 0.000002
0 55 C U 0.000003
0 55 C G 0.000629
0 55 C - 0.000003
0 55 U A 0.000003
0 55 U C 0.000003
0 55 U U 0.000003
0 55 U G -0.000001
0 55 U - 0.000003
0 55 G A 0.000003
0 55 G C 0.000003
0 55 G U 0.000003
0 55 G G 0.002105
0 55 G - 0.000003
0 55 - A -0.002350
0 55 - C 0.022834
0 55 - U 0.001513
0 55 - G -0.096086
0 55 - - 0.000163
0 56 A A 0.000000
0 56 A C -0.000001
0 56 A U -0.000001
0 56 A G -0.000002
0 56 A - -0.000001
0 56 C A 0.000790
0 56 C C -0.000001
0 56 C U 0.000002
0 56 C G -0.000003
0 56 C - -0.000001
0 56 U A -0.000003
0 56 U C -0.000001
0 56 U U -0.000001
0 56 U G 0.002490
0 56 U - -0.000001
0 56 G A 0.000962
0 56 G C -0.000001
0 56 G U -0.000001
0 56 G G 0.000778
0 56 G - -0.000001
0 56 - A -0.003789
0 56 - C 0.004204
0 56 - U 0.010321
0 56 - G -0.147433
0 56 - - 0.004384
0 57 A A 0.000004
0 57 A C 0.000006
0 57 A U -0.000007
0 57 A G 0.000004
0 57 A - 0.000004
0 57 C A -0.000004
0 57 C C 0.000464
0 57 C U -0.000007
0 57 C G -0.000007
0 57 C - 0.000004
0 57 U A 0.000004
0 57 U C -0.000001
0 57 U U -0.000010
0 57 U G -0.000005
0 57 U - 0.000004
0 57 G A 0.000004
0 57 G C 0.000003
0 57 G U 0.000565
0 57 G G -0.000003
0 57 G - 0.000004
0 57 - A 0.000240
0 57 - C -0.008534
0 57 - U 0.001311
0 57 - G -0.003411
0 57 - - 0.000745
0 58 A A -0.000004
0 58 A C -0.000004
0 58 A U 0.000010
0 58 A G -0.000004
0 58 A - -0.000004
0 58 C A -0.000004
0 58 C C 0.000480
0 58 C U -0.000002
0 58 C G -0.000000
0 58 C - -0.000004
0 58 U A -0.000004
0 58 U C 0.000003
0 58 U U -0.000000
0 58 U G -0.000004
0 58 U - -0.000004
0 58 G A -0.000004
0 58 G C 0.000514
0 58 G U 0.000008
0 58 G G -0.000004
0 58 G - -0.000004
0 58 - A 0.004150
0 58 - C -0.018992
0 58 - U -0.010202
0 58 - G 0.000060
0 58 - - 0.009517
0 59 A A 0.000006
0 59 A C 0.000006
0 59 A U 0.000003
0 59 A G 0.000010
0 59 A - 0.000006
0 59 C A 0.000003
0 59 C C 0.000006
0 59 C U 0.000003
0 59 C G 0.000535
0 59 C - 0.000006
0 59 U A 0.000006
0 59 U C 0.000006
0 59 U U 0.000006
0 59 U G 0.000010
0 59 U - 0.000006
0 59 G A 0.000006
0 59 G C 0.000006
0 59 G U 0.000003
0 59 G G 0.000555
0 59 G - 0.000006
0 59 - A 0.012173
0 59 - C 0.004197
0 59 - U 0.003007
0 59 - G -0.049395
0 59 - - -0.003288
0 60 A A 0.000005
0 60 A C -0.000000
0 60 A U -0.000000
0 60 A G 0.000005
0 60 A - -0.000000
0 60 C A 0.000628
0 60 C C -0.000000
0 60 C U -0.000000
0 60 C G -0.000002
0 60 C - -0.000000
0 60 U A 0.000001
0 60 U C -0.000000
0 60 U U -0.000000
0 60 U G 0.000004
0 60 U - -0.000000
0 60 G A 0.000639
0 60 G C -0.000000
0 60 G U -0.000000
0 60 G G -0.000000
0 60 G - 0.000006
0 60 - A -0.114857
0 60 - C 0.031407
0 60 - U 0.014696
0 60 - G -0.001567
0 60 - - -0.001233
0 61 A A -0.000004
0 61 A C 0.000009
0 61 A U 0.000004
0 61 A G 0.000004
0 61 A - 0.000004
0 61 C A 0.000635
0 61 C C 0.000005
0 61 C U 0.000004
0 61 C G 0.000004
0 61 C - 0.000004
0 61 U A 0.000015
0 61 U C 0.000004
0 61 U U 0.000004
0 61 U G 0.000004
0 61 U - 0.000004
0 61 G A 0.002075
0 61 G C 0.000004
0 61 G U -0.000001
0 61 G G 0.000004
0 61 G - 0.000004
0 61 - A -0.084601
0 61 - C 0.004200
0 61 - U -0.004139
0 61 - G 0.000068
0 61 - - 0.011160
0 62 A A 0.000010
0 62 A C -0.000003
0 62 A U -0.000002
0 62 A G 0.000010
0 62 A - 0.000010
0 62 C A -0.000007
0 62 C C -0.000005
0 62 C U 0.000005
0 62 C G 0.000472
0 62 C - 0.000010
0 62 U A 0.000010
0 62 U C 0.000010
0 62 U U 0.000005
0 62 U G 0.000010
0 62 U - 0.000010
0 62 G A 0.000010
0 62 G C 0.000010
0 62 G U 0.000522
0 62 G G -0.000004
0 62 G - 0.000003
0 62 - A -0.001706
0 62 - C -0.001347
0 62 - U -0.028135
0 62 - G -0.000260
0 62 - - 0.020602
0 63 A A 0.000001
0 63 A C 0.000001
0 63 A U -0.000007
0 63 A G 0.000001
0 63 A - 0.000001
0 63 C A -0.000007
0 63 C C -0.000002
0 63 C U 0.000443
0 63 C G 0.000001
0 63 C - 0.000004
0 63 U A 0.000001
0 63 U C 0.000005
0 63 U U -0.000009
0 63 U G 0.000007
0 63 U - 0.000001
0 63 G A 0.000001
0 63 G C -0.000000
0 63 G U 0.001155
0 63 G G 0.000008
0 63 G - 0.000001
0 63 - A -0.006133
0 63 - C -0.003247
0 63 - U 0.001764
0 63 - G -0.005663
0 63 - - 0.017843
0 64 A A -0.000004
0 64 A C 0.000008
0 64 A U -0.000004
0 64 A G -0.000004
0 64 A - -0.000004
0 64 C A -0.000004
0 64 C C 0.000531
0 64 C U 0.000010
0 64 C G -0.000004
0 64 C - -0.000004
0 64 U A -0.000004
0 64 U C 0.000006
0 64 U U -0.000005
0 64 U G -0.000004
0 64 U - -0.000004
0 64 G A -0.000004
0 64 G C 0.001343
0 64 G U 0.000006
0 64 G G -0.000004
0 64 G - -0.000004
0 64 - A -0.000002
0 64 - C -0.034949
0 64 - U -0.005471
0 64 - G 0.006434
0 64 - - 0.002872
0 65 A A -0.000009
0 65 A C -0.000002
0 65 A U -0.000009
0 65 A G -0.000009
0 65 A - -0.000009
0 65 C A -0.000009
0 65 C C 0.000526
0 65 C U 0.000004
0 65 C G 0.000008
0 65 C - -0.000009
0 65 U A -0.000009
0 65 U C -0.000004
0 65 U U -0.000009
0 65 U G -0.000009
0 65 U - -0.000009
0 65 G A -0.000009
0 65 G C 0.001322
0 65 G U 0.000007
0 65 G G -0.000009
0 65 G - -0.000009
0 65 - A 0.000073
0 65 - C -0.033818
0 65 - U -0.006347
0 65 - G 0.006214
0 65 - - 0.002148
0 66 A A -0.000003
0 66 A C 0.000003
0 66 A U 0.000005
0 66 A G -0.000003
0 66 A - -0.000003
0 66 C A 0.000006
0 66 C C -0.000009
0 66 C U 0.000475
0 66 C G -0.000003
0 66 C - -0.000003
0 66 U A 0.000003
0 66 U C 0.000010