# NB_STEPS 3000
# UP_FREQ 1000
# TEMP 1.000000
# LAMBDA 0.050000
# ID_THRES 1.000000
# ALPHA 1.097240
0 0 A A -0.002687
0 0 C C 0.001345
0 0 U U -0.000231
0 0 G G 0.000748
0 0 - - 0.000482
0 1 A A 0.000005
0 1 A C -0.000019
0 1 A U -0.001092
0 1 A G -0.156826
0 1 A - 0.005117
0 1 C A 0.000484
0 1 C C 0.000144
0 1 C U -0.000022
0 1 C G -0.000010
0 1 C - -0.000006
0 1 U A 0.000020
0 1 U C 0.000000
0 1 U U 0.000032
0 1 U G -0.000012
0 1 U - -0.000037
0 1 G A -0.000040
0 1 G C 0.000618
0 1 G U -0.000041
0 1 G G 0.000968
0 1 G - 0.000008
0 1 - A 0.000025
0 1 - C 0.000656
0 1 - U 0.000023
0 1 - G 0.000022
0 1 - - -0.000039
0 2 A A 0.000263
0 2 A C -0.000857
0 2 A U -0.000026
0 2 A G -0.008029
0 2 A - 0.001009
0 2 C A -0.000026
0 2 C C 0.000359
0 2 C U -0.000041
0 2 C G 0.000007
0 2 C - 0.000020
0 2 U A -0.000039
0 2 U C -0.000003
0 2 U U -0.000029
0 2 U G -0.000008
0 2 U - -0.000040
0 2 G A -0.000026
0 2 G C -0.000004
0 2 G U -0.000028
0 2 G G 0.000862
0 2 G - -0.000014
0 2 - A 0.000026
0 2 - C 0.000011
0 2 - U 0.000020
0 2 - G -0.000021
0 2 - - 0.000458
0 3 A A -0.000429
0 3 A C -0.003340
0 3 A U -0.002073
0 3 A G 0.004765
0 3 A - 0.000011
0 3 C A -0.000000
0 3 C C -0.000012
0 3 C U 0.000407
0 3 C G -0.000000
0 3 C - -0.000026
0 3 U A -0.000006
0 3 U C 0.000044
0 3 U U -0.000241
0 3 U G -0.000047
0 3 U - 0.000032
0 3 G A 0.000879
0 3 G C -0.000086
0 3 G U 0.000220
0 3 G G -0.000044
0 3 G - -0.000034
0 3 - A -0.000047
0 3 - C 0.000009
0 3 - U 0.000635
0 3 - G -0.000037
0 3 - - 0.000050
0 4 A A -0.000855
0 4 A C -0.003016
0 4 A U 0.000952
0 4 A G -0.001638
0 4 A - 0.001435
0 4 C A 0.000023
0 4 C C 0.000389
0 4 C U -0.000026
0 4 C G 0.000004
0 4 C - 0.000008
0 4 U A 0.000038
0 4 U C -0.000058
0 4 U U -0.000026
0 4 U G 0.000046
0 4 U - -0.000047
0 4 G A 0.000048
0 4 G C 0.000998
0 4 G U -0.000004
0 4 G G -0.000732
0 4 G - -0.000044
0 4 - A -0.000018
0 4 - C 0.000595
0 4 - U -0.000047
0 4 - G 0.000010
0 4 - - 0.000019
0 5 A A -0.000649
0 5 A C 0.001648
0 5 A U -0.000045
0 5 A G -0.032740
0 5 A - 0.000038
0 5 C A 0.000072
0 5 C C 0.000031
0 5 C U 0.000035
0 5 C G 0.000002
0 5 C - 0.000404
0 5 U A 0.000962
0 5 U C -0.000012
0 5 U U 0.000013
0 5 U G -0.000059
0 5 U - 0.000010
0 5 G A 0.000000
0 5 G C -0.000018
0 5 G U 0.000001
0 5 G G 0.000956
0 5 G - 0.000035
0 5 - A -0.000035
0 5 - C 0.000013
0 5 - U 0.000007
0 5 - G 0.000643
0 5 - - 0.000049
0 6 A A 0.000497
0 6 A C -0.008136
0 6 A U -0.000044
0 6 A G -0.000720
0 6 A - 0.000964
0 6 C A 0.000048
0 6 C C 0.001047
0 6 C U 0.000008
0 6 C G 0.000047
0 6 C - -0.000013
0 6 U A 0.000026
0 6 U C -0.000289
0 6 U U 0.000015
0 6 U G -0.000030
0 6 U - -0.000006
0 6 G A -0.000009
0 6 G C 0.000918
0 6 G U -0.000024
0 6 G G 0.000010
0 6 G - -0.000016
0 6 - A -0.000046
0 6 - C 0.000629
0 6 - U 0.000000
0 6 - G -0.000036
0 6 - - -0.000032
0 7 A A 0.000855
0 7 A C -0.160797
0 7 A U -0.000043
0 7 A G -0.001026
0 7 A - 0.000841
0 7 C A -0.000006
0 7 C C 0.001150
0 7 C U 0.000010
0 7 C G 0.000028
0 7 C - -0.000020
0 7 U A 0.000144
0 7 U C -0.000029
0 7 U U -0.000054
0 7 U G -0.000050
0 7 U - 0.000034
0 7 G A -0.000062
0 7 G C 0.000969
0 7 G U -0.000027
0 7 G G -0.000040
0 7 G - 0.000017
0 7 - A 0.000005
0 7 - C 0.000493
0 7 - U 0.000011
0 7 - G -0.000010
0 7 - - -0.000029
0 8 A A -0.171908
0 8 A C 0.000019
0 8 A U -0.000008
0 8 A G -0.000007
0 8 A - -0.000027
0 8 C A 0.001088
0 8 C C 0.000000
0 8 C U -0.000034
0 8 C G 0.000119
0 8 C - -0.000015
0 8 U A -0.000100
0 8 U C 0.000020
0 8 U U 0.000021
0 8 U G 0.000021
0 8 U - -0.000023
0 8 G A 0.000903
0 8 G C -0.000011
0 8 G U 0.000046
0 8 G G 0.000031
0 8 G - -0.000035
0 8 - A 0.001852
0 8 - C 0.000715
0 8 - U -0.000060
0 8 - G 0.000053
0 8 - - 0.000022
0 9 A A 0.000051
0 9 A C 0.000003
0 9 A U -0.000013
0 9 A G -0.249334
0 9 A - 0.000000
0 9 C A 0.000007
0 9 C C 0.000007
0 9 C U -0.000037
0 9 C G 0.006297
0 9 C - -0.000039
0 9 U A 0.000007
0 9 U C -0.000037
0 9 U U 0.000026
0 9 U G -0.000043
0 9 U - 0.000007
0 9 G A 0.000028
0 9 G C -0.000013
0 9 G U 0.000007
0 9 G G 0.000882
0 9 G - -0.000029
0 9 - A 0.000038
0 9 - C 0.000027
0 9 - U -0.000013
0 9 - G 0.009944
0 9 - - -0.000002
0 10 A A -0.000038
0 10 A C 0.000247
0 10 A U -0.113239
0 10 A G 0.000009
0 10 A - 0.000024
0 10 C A -0.000023
0 10 C C 0.000014
0 10 C U 0.001899
0 10 C G 0.000036
0 10 C - -0.000021
0 10 U A 0.000015
0 10 U C 0.000017
0 10 U U -0.000100
0 10 U G 0.000011
0 10 U - -0.000002
0 10 G A 0.000016
0 10 G C 0.000036
0 10 G U 0.000750
0 10 G G 0.000014
0 10 G - 0.000312
0 10 - A 0.000011
0 10 - C 0.000008
0 10 - U 0.003209
0 10 - G -0.000003
0 10 - - 0.000034
0 11 A A 0.000014
0 11 A C 0.000099
0 11 A U -0.001295
0 11 A G 0.000039
0 11 A - -0.017937
0 11 C A 0.000014
0 11 C C -0.000045
0 11 C U 0.000374
0 11 C G 0.000002
0 11 C - -0.000013
0 11 U A 0.000003
0 11 U C -0.000045
0 11 U U 0.000037
0 11 U G 0.000020
0 11 U - -0.000286
0 11 G A -0.000048
0 11 G C 0.000031
0 11 G U -0.000015
0 11 G G -0.000029
0 11 G - 0.000862
0 11 - A -0.000010
0 11 - C 0.000030
0 11 - U 0.000619
0 11 - G -0.000001
0 11 - - 0.000757
0 12 A A -0.010542
0 12 A C 0.010710
0 12 A U -0.005448
0 12 A G 0.001564
0 12 A - -0.001240
0 12 C A 0.000353
0 12 C C 0.000005
0 12 C U -0.000011
0 12 C G -0.000006
0 12 C - 0.000024
0 12 U A 0.000015
0 12 U C 0.000038
0 12 U U -0.000004
0 12 U G -0.000044
0 12 U - -0.000961
0 12 G A 0.000031
0 12 G C -0.000016
0 12 G U -0.000031
0 12 G G -0.000041
0 12 G - 0.000924
0 12 - A 0.000565
0 12 - C -0.000007
0 12 - U -0.000048
0 12 - G -0.000022
0 12 - - 0.000003
0 13 A A -0.000050
0 13 A C -0.000045
0 13 A U 0.000259
0 13 A G -0.004524
0 13 A - 0.000962
0 13 C A 0.000027
0 13 C C 0.000041
0 13 C U 0.000001
0 13 C G 0.000387
0 13 C - 0.000040
0 13 U A 0.000028
0 13 U C 0.000018
0 13 U U -0.000027
0 13 U G -0.000239
0 13 U - 0.000042
0 13 G A 0.000047
0 13 G C 0.000027
0 13 G U 0.000030
0 13 G G 0.000880
0 13 G - -0.000042
0 13 - A -0.000028
0 13 - C -0.000021
0 13 - U 0.000003
0 13 - G 0.000578
0 13 - - -0.000028
0 14 A A -0.000030
0 14 A C -0.024452
0 14 A U 0.000263
0 14 A G 0.003623
0 14 A - 0.000038
0 14 C A -0.000030
0 14 C C 0.000330
0 14 C U 0.000068
0 14 C G 0.000021
0 14 C - 0.000046
0 14 U A 0.000002
0 14 U C -0.000070
0 14 U U 0.000004
0 14 U G -0.000011
0 14 U - -0.000029
0 14 G A -0.000011
0 14 G C 0.001003
0 14 G U -0.000033
0 14 G G 0.000017
0 14 G - -0.000016
0 14 - A 0.000024
0 14 - C 0.000640
0 14 - U 0.000017
0 14 - G 0.000038
0 14 - - 0.000006
0 15 A A 0.000281
0 15 A C -0.004847
0 15 A U -0.000345
0 15 A G -0.000351
0 15 A - 0.001488
0 15 C A -0.000003
0 15 C C -0.000004
0 15 C U 0.000015
0 15 C G 0.000372
0 15 C - 0.000047
0 15 U A 0.000047
0 15 U C -0.000011
0 15 U U 0.000033
0 15 U G -0.000435
0 15 U - -0.000003
0 15 G A 0.000047
0 15 G C -0.000033
0 15 G U -0.000022
0 15 G G 0.000916
0 15 G - -0.000050
0 15 - A -0.000049
0 15 - C 0.000030
0 15 - U -0.000027
0 15 - G 0.000578
0 15 - - 0.000047
0 16 A A -0.000524
0 16 A C 0.003325
0 16 A U -0.000638
0 16 A G -0.001947
0 16 A - -0.000013
0 16 C A 0.000368
0 16 C C -0.000003
0 16 C U 0.000033
0 16 C G 0.000064
0 16 C - -0.000017
0 16 U A -0.000311
0 16 U C 0.000046
0 16 U U -0.000045
0 16 U G -0.000046
0 16 U - -0.000003
0 16 G A 0.001224
0 16 G C 0.000036
0 16 G U 0.000024
0 16 G G -0.000030
0 16 G - -0.000005
0 16 - A 0.000588
0 16 - C -0.000003
0 16 - U 0.000044
0 16 - G -0.000021
0 16 - - -0.000006
0 17 A A -0.000829
0 17 A C -0.014001
0 17 A U 0.000849
0 17 A G 0.000789
0 17 A - -0.000038
0 17 C A -0.000019
0 17 C C 0.000075
0 17 C U 0.000004
0 17 C G 0.000355
0 17 C - -0.000023
0 17 U A -0.000020
0 17 U C 0.000014
0 17 U U -0.000052
0 17 U G -0.000054
0 17 U - 0.000014
0 17 G A -0.000019
0 17 G C 0.000834
0 17 G U 0.000043
0 17 G G -0.000015
0 17 G - 0.000028
0 17 - A -0.000019
0 17 - C -0.000023
0 17 - U -0.000041
0 17 - G 0.000011
0 17 - - 0.000591
0 18 A A -0.001070
0 18 A C -0.001047
0 18 A U -0.007596
0 18 A G 0.002616
0 18 A - 0.001379
0 18 C A 0.000034
0 18 C C 0.000349
0 18 C U 0.000024
0 18 C G -0.000008
0 18 C - 0.000017
0 18 U A -0.000017
0 18 U C -0.000067
0 18 U U 0.000020
0 18 U G -0.000066
0 18 U - -0.000011
0 18 G A -0.000035
0 18 G C 0.000244
0 18 G U 0.000963
0 18 G G -0.000309
0 18 G - -0.000009
0 18 - A -0.000046
0 18 - C -0.000038
0 18 - U -0.000039
0 18 - G 0.000590
0 18 - - 0.000008
0 19 A A -0.000675
0 19 A C -0.000543
0 19 A U 0.000084
0 19 A G -0.000841
0 19 A - 0.000006
0 19 C A 0.000033
0 19 C C -0.000006
0 19 C U 0.000367
0 19 C G 0.000056
0 19 C - -0.000030
0 19 U A -0.000050
0 19 U C -0.000027
0 19 U U 0.000017
0 19 U G -0.000004
0 19 U - -0.000019
0 19 G A 0.000026
0 19 G C 0.000965
0 19 G U 0.000003
0 19 G G 0.000011
0 19 G - -0.000034
0 19 - A 0.000035
0 19 - C -0.000021
0 19 - U 0.000410
0 19 - G -0.000024
0 19 - - -0.000034
0 20 A A -0.000035
0 20 A C -0.008364
0 20 A U -0.001764
0 20 A G 0.001012
0 20 A - -0.000049
0 20 C A 0.000023
0 20 C C 0.001038
0 20 C U 0.000048
0 20 C G -0.000049
0 20 C - -0.000017
0 20 U A 0.000038
0 20 U C -0.000225
0 20 U U 0.000046
0 20 U G -0.000015
0 20 U - 0.000048
0 20 G A 0.000021
0 20 G C 0.000899
0 20 G U -0.000015
0 20 G G 0.000041
0 20 G - 0.000002
0 20 - A 0.000019
0 20 - C 0.000029
0 20 - U 0.000010
0 20 - G 0.000638
0 20 - - 0.000006
0 21 A A 0.000073
0 21 A C -0.000498
0 21 A U -0.018212
0 21 A G -0.000479
0 21 A - 0.001871
0 21 C A -0.000019
0 21 C C -0.000005
0 21 C U 0.000372
0 21 C G 0.000059
0 21 C - 0.000006
0 21 U A -0.000042
0 21 U C -0.000014
0 21 U U 0.000023
0 21 U G -0.000041
0 21 U - 0.000018
0 21 G A 0.000042
0 21 G C 0.000888
0 21 G U 0.000030
0 21 G G 0.000048
0 21 G - -0.000002
0 21 - A -0.000008
0 21 - C 0.000014
0 21 - U 0.000658
0 21 - G -0.000002
0 21 - - 0.000026
0 22 A A -0.000808
0 22 A C -0.000191
0 22 A U -0.002221
0 22 A G -0.001867
0 22 A - -0.000002
0 22 C A -0.000011
0 22 C C 0.000018
0 22 C U 0.000016
0 22 C G 0.001058
0 22 C - 0.000016
0 22 U A -0.000076
0 22 U C -0.000034
0 22 U U 0.000030
0 22 U G -0.000038
0 22 U - 0.000016
0 22 G A -0.000037
0 22 G C -0.000010
0 22 G U 0.000259
0 22 G G 0.000939
0 22 G - 0.000037
0 22 - A -0.000014
0 22 - C -0.000050
0 22 - U 0.000023
0 22 - G 0.000583
0 22 - - -0.000017
0 23 A A -0.000478
0 23 A C 0.000077
0 23 A U -0.019481
0 23 A G 0.000693
0 23 A - 0.000041
0 23 C A -0.000038
0 23 C C 0.000005
0 23 C U 0.000345
0 23 C G 0.000026
0 23 C - 0.000027
0 23 U A -0.000025
0 23 U C 0.000007
0 23 U U -0.000039
0 23 U G -0.000048
0 23 U - -0.000031
0 23 G A 0.000050
0 23 G C 0.000006
0 23 G U 0.000882
0 23 G G 0.000048
0 23 G - -0.000033
0 23 - A 0.000044
0 23 - C 0.000016
0 23 - U 0.000596
0 23 - G 0.000014
0 23 - - 0.000046
0 24 A A -0.000028
0 24 A C -0.000844
0 24 A U -0.004039
0 24 A G 0.000030
0 24 A - -0.000037
0 24 C A -0.000021
0 24 C C 0.000384
0 24 C U 0.000344
0 24 C G 0.000003
0 24 C - -0.000001
0 24 U A -0.000001
0 24 U C -0.000050
0 24 U U -0.000010
0 24 U G -0.000008
0 24 U - 0.000004
0 24 G A -0.000046
0 24 G C -0.000017
0 24 G U 0.000974
0 24 G G 0.000004
0 24 G - -0.000046
0 24 - A 0.000004
0 24 - C 0.000561
0 24 - U -0.000010
0 24 - G -0.000046
0 24 - - -0.000029
0 25 A A 0.001009
0 25 A C -0.002119
0 25 A U -0.013484
0 25 A G 0.000037
0 25 A - -0.000026
0 25 C A 0.000013
0 25 C C 0.000373
0 25 C U 0.000012
0 25 C G 0.000008
0 25 C - 0.000008
0 25 U A -0.000044
0 25 U C -0.000014
0 25 U U -0.000012
0 25 U G -0.000044
0 25 U - 0.000023
0 25 G A -0.000117
0 25 G C 0.000921
0 25 G U -0.000011
0 25 G G -0.000024
0 25 G - 0.000025
0 25 - A 0.000429
0 25 - C -0.000000
0 25 - U 0.000046
0 25 - G -0.000026
0 25 - - 0.000015
0 26 A A -0.009098
0 26 A C -0.002539
0 26 A U 0.000535
0 26 A G 0.000828
0 26 A - 0.007869
0 26 C A -0.000035
0 26 C C 0.000348
0 26 C U 0.000004
0 26 C G -0.000046
0 26 C - 0.000049
0 26 U A -0.000009
0 26 U C -0.000003
0 26 U U 0.000870
0 26 U G -0.000026
0 26 U - 0.000015
0 26 G A 0.001173
0 26 G C 0.000912
0 26 G U -0.010925
0 26 G G -0.000014
0 26 G - 0.000036
0 26 - A -0.000023
0 26 - C 0.000611
0 26 - U -0.000026
0 26 - G 0.000003
0 26 - - 0.000015
0 27 A A -0.000005
0 27 A C 0.000631
0 27 A U -0.001082
0 27 A G -0.015854
0 27 A - 0.001814
0 27 C A -0.000025
0 27 C C 0.000348
0 27 C U 0.000050
0 27 C G 0.000002
0 27 C - 0.000001
0 27 U A 0.000011
0 27 U C -0.000026
0 27 U U 0.000030
0 27 U G 0.000023
0 27 U - 0.000043
0 27 G A 0.000025
0 27 G C 0.000863
0 27 G U -0.000019
0 27 G G -0.000025
0 27 G - 0.000025
0 27 - A -0.000017
0 27 - C -0.000027
0 27 - U 0.000050
0 27 - G 0.000578
0 27 - - 0.000045
0 28 A A -0.025699
0 28 A C 0.000030
0 28 A U 0.001199
0 28 A G -0.000026
0 28 A - -0.000014
0 28 C A 0.001475
0 28 C C 0.000010
0 28 C U 0.000014
0 28 C G -0.000022
0 28 C - -0.000005
0 28 U A -0.000206
0 28 U C 0.000027
0 28 U U -0.000003
0 28 U G 0.000029
0 28 U - -0.000022
0 28 G A -0.000141
0 28 G C 0.000906
0 28 G U 0.000049
0 28 G G -0.000045
0 28 G - 0.000041
0 28 - A 0.000403
0 28 - C -0.000005
0 28 - U -0.000040
0 28 - G 0.000019
0 28 - - -0.000022
0 29 A A 0.001208
0 29 A C -0.013984
0 29 A U 0.000038
0 29 A G 0.000097
0 29 A - -0.000047
0 29 C A -0.000006
0 29 C C 0.001315
0 29 C U 0.000002
0 29 C G 0.000012
0 29 C - -0.000027
0 29 U A 0.000027
0 29 U C -0.000227
0 29 U U 0.000033
0 29 U G 0.000005
0 29 U - -0.000005
0 29 G A 0.000025
0 29 G C 0.000797
0 29 G U 0.000049
0 29 G G 0.000011
0 29 G - 0.000045
0 29 - A -0.000013
0 29 - C 0.000422
0 29 - U 0.000029
0 29 - G -0.000008
0 29 - - -0.000008
0 30 A A -0.015586
0 30 A C 0.000006
0 30 A U -0.000012
0 30 A G -0.000011
0 30 A - 0.000032
0 30 C A 0.001034
0 30 C C -0.000039
0 30 C U -0.000027
0 30 C G -0.000012
0 30 C - -0.000039
0 30 U A -0.000178
0 30 U C -0.000024
0 30 U U -0.000010
0 30 U G -0.000039
0 30 U - -0.000026
0 30 G A 0.000841
0 30 G C 0.000011
0 30 G U -0.000009
0 30 G G -0.000009
0 30 G - -0.000007
0 30 - A 0.000433
0 30 - C -0.000039
0 30 - U -0.000004
0 30 - G -0.000027
0 30 - - 0.000010
0 31 A A -0.000005
0 31 A C -0.108543
0 31 A U 0.000022
0 31 A G 0.000218
0 31 A - -0.000005
0 31 C A 0.000008
0 31 C C 0.001855
0 31 C U 0.000044
0 31 C G -0.000009
0 31 C - -0.000009
0 31 U A -0.000008
0 31 U C -0.000032
0 31 U U -0.000022
0 31 U G -0.000027
0 31 U - 0.000029
0 31 G A 0.000026
0 31 G C 0.000833
0 31 G U 0.000025
0 31 G G 0.000023
0 31 G - -0.000038
0 31 - A -0.000003
0 31 - C 0.000511
0 31 - U 0.000028
0 31 - G -0.000009
0 31 - - -0.000027
0 32 A A -0.032590
0 32 A C 0.000010
0 32 A U -0.000012
0 32 A G -0.001578
0 32 A - -0.000008
0 32 C A 0.000403
0 32 C C 0.000036
0 32 C U 0.000022
0 32 C G 0.000371
0 32 C - 0.000018
0 32 U A -0.000047
0 32 U C 0.000019
0 32 U U -0.000047
0 32 U G 0.000006
0 32 U - -0.000034
0 32 G A 0.000926
0 32 G C 0.000029
0 32 G U 0.000000
0 32 G G 0.000011
0 32 G - 0.000018
0 32 - A -0.000050
0 32 - C 0.000049
0 32 - U 0.000000
0 32 - G 0.000671
0 32 - - 0.000015
0 33 A A -0.020669
0 33 A C 0.000680
0 33 A U -0.000284
0 33 A G -0.000002
0 33 A - 0.000019
0 33 C A 0.000343
0 33 C C 0.000047
0 33 C U 0.000041
0 33 C G 0.000051
0 33 C - 0.000041
0 33 U A 0.000007
0 33 U C 0.000009
0 33 U U -0.000065
0 33 U G -0.000024
0 33 U - -0.000040
0 33 G A 0.000850
0 33 G C 0.000012
0 33 G U -0.000022
0 33 G G -0.000033
0 33 G - -0.000023
0 33 - A 0.000589
0 33 - C -0.000034
0 33 - U -0.000012
0 33 - G -0.000008
0 33 - - -0.000025
0 34 A A -0.003547
0 34 A C -0.001319
0 34 A U -0.001870
0 34 A G -0.000066
0 34 A - 0.000870
0 34 C A -0.000023
0 34 C C 0.001017
0 34 C U -0.000027
0 34 C G -0.000040
0 34 C - -0.000041
0 34 U A 0.000046
0 34 U C -0.000056
0 34 U U -0.000045
0 34 U G -0.000041
0 34 U - -0.000041
0 34 G A 0.000254
0 34 G C 0.000929
0 34 G U -0.000065
0 34 G G 0.000038
0 34 G - -0.000017
0 34 - A -0.000047
0 34 - C 0.000642
0 34 - U 0.000037
0 34 - G 0.000013
0 34 - - -0.000040
0 35 A A -0.000823
0 35 A C -0.000033
0 35 A U -0.000052
0 35 A G -0.002847
0 35 A - 0.000199
0 35 C A 0.001053
0 35 C C 0.000009
0 35 C U -0.000042
0 35 C G 0.000003
0 35 C - -0.000023
0 35 U A -0.000039
0 35 U C 0.000003
0 35 U U -0.000014
0 35 U G 0.000004
0 35 U - 0.000018
0 35 G A -0.000062
0 35 G C 0.000025
0 35 G U 0.000017
0 35 G G 0.000882
0 35 G - -0.000033
0 35 - A 0.000565
0 35 - C -0.000049
0 35 - U 0.000017
0 35 - G -0.000055
0 35 - - 0.000008
0 36 A A -0.004294
0 36 A C 0.000023
0 36 A U -0.000024
0 36 A G -0.007147
0 36 A - 0.000008
0 36 C A 0.000028
0 36 C C -0.000042
0 36 C U -0.000005
0 36 C G 0.001073
0 36 C - 0.000010
0 36 U A -0.000005
0 36 U C 0.000045
0 36 U U -0.000026
0 36 U G -0.000215
0 36 U - 0.000009
0 36 G A -0.000020
0 36 G C 0.000032
0 36 G U -0.000005
0 36 G G 0.000865
0 36 G - 0.000011
0 36 - A 0.000015
0 36 - C 0.000620
0 36 - U 0.000045
0 36 - G -0.000035
0 36 - - 0.000009
0 37 A A -0.000155
0 37 A C -0.000273
0 37 A U -0.051066
0 37 A G 0.000083
0 37 A - 0.000048
0 37 C A 0.000424
0 37 C C 0.000009
0 37 C U 0.000018
0 37 C G 0.000010
0 37 C - -0.000044
0 37 U A -0.000004
0 37 U C -0.000003
0 37 U U -0.000063
0 37 U G 0.000012
0 37 U - 0.000040
0 37 G A 0.000007
0 37 G C -0.000035
0 37 G U 0.000472
0 37 G G 0.000945
0 37 G - 0.000040
0 37 - A 0.000610
0 37 - C -0.000038
0 37 - U -0.000018
0 37 - G 0.000046
0 37 - - 0.000040
0 38 A A -0.000045
0 38 A C 0.000797
0 38 A U -0.002382
0 38 A G -0.000389
0 38 A - -0.000049
0 38 C A -0.000028
0 38 C C 0.000067
0 38 C U -0.000012
0 38 C G 0.000357
0 38 C - -0.000000
0 38 U A -0.000042
0 38 U C -0.000006
0 38 U U -0.000007
0 38 U G -0.000043
0 38 U - -0.000015
0 38 G A -0.000036
0 38 G C 0.000958
0 38 G U -0.000023
0 38 G G 0.000268
0 38 G - -0.000029
0 38 - A 0.000036
0 38 - C -0.000035
0 38 - U 0.000560
0 38 - G 0.000025
0 38 - - -0.000047
0 39 A A -0.002153
0 39 A C -0.000637
0 39 A U 0.000854
0 39 A G -0.000635
0 39 A - -0.000055
0 39 C A 0.000324
0 39 C C -0.000050
0 39 C U -0.000042
0 39 C G -0.000001
0 39 C - 0.000019
0 39 U A -0.000022
0 39 U C -0.000025
0 39 U U -0.000019
0 39 U G -0.000026
0 39 U - -0.000006
0 39 G A 0.000828
0 39 G C -0.000031
0 39 G U -0.000009
0 39 G G -0.000023
0 39 G - 0.000021
0 39 - A 0.000389
0 39 - C -0.000038
0 39 - U -0.000018
0 39 - G 0.000002
0 39 - - -0.000019
0 40 A A -0.109455
0 40 A C -0.000068
0 40 A U -0.004489
0 40 A G 0.000660
0 40 A - 0.002315
0 40 C A 0.000886
0 40 C C -0.000033
0 40 C U 0.000073
0 40 C G -0.000032
0 40 C - 0.000006
0 40 U A -0.000041
0 40 U C 0.000052
0 40 U U -0.000028
0 40 U G 0.000026
0 40 U - -0.000047
0 40 G A 0.000056
0 40 G C -0.000022
0 40 G U -0.000031
0 40 G G 0.000878
0 40 G - -0.000029
0 40 - A 0.000440
0 40 - C 0.000021
0 40 - U 0.000041
0 40 - G 0.000045
0 40 - - -0.000002
0 41 A A -0.002494
0 41 A C 0.000761
0 41 A U -0.027112
0 41 A G 0.001747
0 41 A - 0.009848
0 41 C A 0.000001
0 41 C C -0.000048
0 41 C U 0.000336
0 41 C G 0.000031
0 41 C - 0.000002
0 41 U A 0.000027
0 41 U C 0.000025
0 41 U U -0.000020
0 41 U G 0.000049
0 41 U - -0.000052
0 41 G A -0.000028
0 41 G C 0.000030
0 41 G U 0.000904
0 41 G G -0.001735
0 41 G - -0.000032
0 41 - A 0.000047
0 41 - C -0.000036
0 41 - U 0.000477
0 41 - G 0.000011
0 41 - - 0.000022
0 42 A A -0.000186
0 42 A C 0.000588
0 42 A U -0.000251
0 42 A G -0.005899
0 42 A - 0.000437
0 42 C A 0.000017
0 42 C C 0.000342
0 42 C U -0.000034
0 42 C G 0.000026
0 42 C - -0.000034
0 42 U A -0.000046
0 42 U C 0.000004
0 42 U U -0.000026
0 42 U G -0.000054
0 42 U - 0.000004
0 42 G A -0.000025
0 42 G C -0.000025
0 42 G U 0.000955
0 42 G G -0.000107
0 42 G - -0.000006
0 42 - A 0.000027
0 42 - C 0.000561
0 42 - U -0.000051
0 42 - G 0.000040
0 42 - - 0.000013
0 43 A A 0.000021
0 43 A C 0.000037
0 43 A U 0.000052
0 43 A G -0.111824
0 43 A - 0.000037
0 43 C A 0.000028
0 43 C C 0.000045
0 43 C U 0.000028
0 43 C G 0.001812
0 43 C - -0.000038
0 43 U A 0.000030
0 43 U C -0.000039
0 43 U U -0.000036
0 43 U G -0.000073
0 43 U - -0.000020
0 43 G A -0.000050
0 43 G C 0.000049
0 43 G U -0.000019
0 43 G G 0.000869
0 43 G - -0.000039
0 43 - A -0.000039
0 43 - C -0.000035
0 43 - U 0.000046
0 43 - G 0.000017
0 43 - - 0.000638
0 44 A A 0.000292
0 44 A C -0.000028
0 44 A U 0.000015
0 44 A G -0.061744
0 44 A - 0.000049
0 44 C A -0.000032
0 44 C C 0.000029
0 44 C U 0.000029
0 44 C G 0.001637
0 44 C - 0.000029
0 44 U A -0.000015
0 44 U C 0.000029
0 44 U U 0.000029
0 44 U G -0.000109
0 44 U - 0.000029
0 44 G A -0.000017
0 44 G C 0.000029
0 44 G U 0.000049
0 44 G G 0.000782
0 44 G - 0.000029
0 44 - A -0.000034
0 44 - C 0.000047
0 44 - U 0.000029
0 44 - G 0.000455
0 44 - - 0.000029
0 45 A A 0.000030
0 45 A C 0.000233
0 45 A U 0.000029
0 45 A G -0.102808
0 45 A - -0.000030
0 45 C A -0.000046
0 45 C C 0.000008
0 45 C U -0.000046
0 45 C G 0.001793
0 45 C - -0.000046
0 45 U A -0.000046
0 45 U C 0.000036
0 45 U U -0.000046
0 45 U G -0.000161
0 45 U - -0.000046
0 45 G A -0.000046
0 45 G C -0.000006
0 45 G U -0.000046
0 45 G G 0.000857
0 45 G - -0.000046
0 45 - A -0.000046
0 45 - C 0.000026
0 45 - U -0.000046
0 45 - G 0.000521
0 45 - - -0.000046
0 46 A A -0.000066
0 46 A C -0.000044
0 46 A U -0.012228
0 46 A G -0.000019
0 46 A - 0.000006
0 46 C A -0.000037
0 46 C C 0.000050
0 46 C U 0.001344
0 46 C G -0.000043
0 46 C - -0.000035
0 46 U A 0.000012
0 46 U C -0.000035
0 46 U U -0.000174
0 46 U G 0.000023
0 46 U - -0.000001
0 46 G A 0.000050
0 46 G C 0.000002
0 46 G U 0.000850
0 46 G G -0.000001
0 46 G - 0.000050
0 46 - A -0.000017
0 46 - C 0.000050
0 46 - U 0.000444
0 46 - G -0.000036
0 46 - - -0.000014
0 47 A A -0.000042
0 47 A C 0.000963
0 47 A U 0.000243
0 47 A G -0.003849
0 47 A - 0.000050
0 47 C A 0.000000
0 47 C C 0.000047
0 47 C U -0.000032
0 47 C G 0.000356
0 47 C - 0.000046
0 47 U A 0.000021
0 47 U C 0.000047
0 47 U U -0.000014
0 47 U G -0.000264
0 47 U - -0.000042
0 47 G A 0.000273
0 47 G C 0.000021
0 47 G U -0.000038
0 47 G G 0.000827
0 47 G - 0.000047
0 47 - A 0.000021
0 47 - C -0.000021
0 47 - U 0.000653
0 47 - G 0.000015
0 47 - - -0.000043
0 48 A A -0.000011
0 48 A C -0.084933
0 48 A U 0.000729
0 48 A G -0.000011
0 48 A - 0.000044
0 48 C A -0.000028
0 48 C C 0.001680
0 48 C U -0.000028
0 48 C G 0.000042
0 48 C - -0.000012
0 48 U A -0.000028
0 48 U C -0.000117
0 48 U U -0.000028
0 48 U G 0.000008
0 48 U - -0.000028
0 48 G A -0.000028
0 48 G C 0.000722
0 48 G U -0.000011
0 48 G G 0.000342
0 48 G - -0.000028
0 48 - A -0.000009
0 48 - C 0.000494
0 48 - U -0.000028
0 48 - G 0.000009
0 48 - - -0.000028
0 49 A A -0.073598
0 49 A C 0.000464
0 49 A U 0.000020
0 49 A G -0.001975
0 49 A - 0.000696
0 49 C A 0.000370
0 49 C C 0.000011
0 49 C U -0.000023
0 49 C G 0.000034
0 49 C - -0.000027
0 49 U A 0.000013
0 49 U C -0.000024
0 49 U U -0.000008
0 49 U G 0.000028
0 49 U - -0.000005
0 49 G A 0.000844
0 49 G C 0.000010
0 49 G U 0.000012
0 49 G G -0.000041
0 49 G - 0.000042
0 49 - A 0.000630
0 49 - C -0.000008
0 49 - U -0.000026
0 49 - G -0.000024
0 49 - - -0.000039
0 50 A A -0.014973
0 50 A C 0.000661
0 50 A U -0.000023
0 50 A G -0.000042
0 50 A - -0.000013
0 50 C A 0.001380
0 50 C C -0.000019
0 50 C U -0.000022
0 50 C G -0.000035
0 50 C - -0.000042
0 50 U A -0.000280
0 50 U C 0.000003
0 50 U U -0.000001
0 50 U G -0.000005
0 50 U - 0.000008
0 50 G A 0.000807
0 50 G C -0.000011
0 50 G U -0.000014
0 50 G G -0.000028
0 50 G - -0.000031
0 50 - A 0.000463
0 50 - C -0.000025
0 50 - U -0.000042
0 50 - G -0.000033
0 50 - - -0.000033
0 51 A A -0.001493
0 51 A C -0.063600
0 51 A U -0.000078
0 51 A G 0.000427
0 51 A - -0.000001
0 51 C A 0.000033
0 51 C C 0.000442
0 51 C U 0.000047
0 51 C G 0.000032
0 51 C - -0.000007
0 51 U A -0.000020
0 51 U C -0.000509
0 51 U U 0.000019
0 51 U G 0.000043
0 51 U - 0.000031
0 51 G A -0.000015
0 51 G C 0.001530
0 51 G U -0.000014
0 51 G G 0.000050
0 51 G - 0.000028
0 51 - A -0.000032
0 51 - C 0.000438
0 51 - U 0.000033
0 51 - G -0.000035
0 51 - - -0.000023
0 52 A A 0.000026
0 52 A C -0.000056
0 52 A U -0.179164
0 52 A G 0.000437
0 52 A - 0.000536
0 52 C A 0.000003
0 52 C C 0.000050
0 52 C U 0.002220
0 52 C G -0.000015
0 52 C - 0.000020
0 52 U A 0.000003
0 52 U C -0.000061
0 52 U U -0.000027
0 52 U G -0.000010
0 52 U - -0.000038
0 52 G A 0.000043
0 52 G C 0.000938
0 52 G U -0.000066
0 52 G G 0.000040
0 52 G - -0.000032
0 52 - A 0.000047
0 52 - C -0.000053
0 52 - U 0.005057
0 52 - G -0.000014
0 52 - - -0.000017
0 53 A A -0.000000
0 53 A C -0.074507
0 53 A U -0.000021
0 53 A G 0.000027
0 53 A - 0.000049
0 53 C A -0.000019
0 53 C C 0.001701
0 53 C U -0.000035
0 53 C G -0.000019
0 53 C - -0.000019
0 53 U A -0.000035
0 53 U C -0.000160
0 53 U U -0.000003
0 53 U G -0.000019
0 53 U - -0.000016
0 53 G A -0.000035
0 53 G C 0.000805
0 53 G U -0.000018
0 53 G G -0.000035
0 53 G - -0.000019
0 53 - A -0.000035
0 53 - C 0.000510
0 53 - U -0.000023
0 53 - G -0.000002
0 53 - - -0.000035
0 54 A A 0.000003
0 54 A C -0.058948
0 54 A U -0.000019
0 54 A G 0.000047
0 54 A - 0.000050
0 54 C A -0.000001
0 54 C C 0.001607
0 54 C U -0.000001
0 54 C G -0.000016
0 54 C - 0.000002
0 54 U A -0.000000
0 54 U C -0.000138
0 54 U U 0.000001
0 54 U G -0.000016
0 54 U - 0.000022
0 54 G A 0.000014
0 54 G C 0.000838
0 54 G U 0.000002
0 54 G G -0.000016
0 54 G - 0.000001
0 54 - A 0.000018
0 54 - C 0.000490
0 54 - U -0.000016
0 54 - G 0.000002
0 54 - - 0.000002
0 55 A A 0.000023
0 55 A C -0.162408
0 55 A U 0.000142
0 55 A G -0.000031
0 55 A - 0.000049
0 55 C A -0.000039
0 55 C C 0.002147
0 55 C U 0.000043
0 55 C G 0.000006
0 55 C - 0.000041
0 55 U A 0.000044
0 55 U C -0.000062
0 55 U U -0.000042
0 55 U G -0.000039
0 55 U - 0.000041
0 55 G A -0.000021
0 55 G C 0.000897
0 55 G U -0.000022
0 55 G G 0.000040
0 55 G - 0.000024
0 55 - A 0.000056
0 55 - C 0.000456
0 55 - U 0.000042
0 55 - G 0.000006
0 55 - - 0.000024
0 56 A A 0.000233
0 56 A C -0.003412
0 56 A U -0.000046
0 56 A G 0.000055
0 56 A - -0.000014
0 56 C A -0.000008
0 56 C C -0.000032
0 56 C U 0.000000
0 56 C G 0.000383
0 56 C - 0.000030
0 56 U A 0.000042
0 56 U C -0.000236
0 56 U U 0.000001
0 56 U G -0.000045
0 56 U - -0.000008
0 56 G A 0.000025
0 56 G C 0.000802
0 56 G U 0.000001
0 56 G G -0.000023
0 56 G - 0.000001
0 56 - A 0.000001
0 56 - C -0.000051
0 56 - U 0.000000
0 56 - G 0.000584
0 56 - - -0.000008
0 57 A A 0.001352
0 57 A C -0.003307
0 57 A U -0.000040
0 57 A G 0.000579
0 57 A - -0.182793
0 57 C A -0.000024
0 57 C C 0.001313
0 57 C U -0.000039
0 57 C G 0.000179
0 57 C - 0.000026
0 57 U A 0.000056
0 57 U C -0.000023
0 57 U U 0.000028
0 57 U G -0.000038
0 57 U - 0.000005
0 57 G A -0.000040
0 57 G C 0.000863
0 57 G U 0.000043
0 57 G G -0.000023
0 57 G - 0.000348
0 57 - A 0.000046
0 57 - C -0.000006
0 57 - U 0.000043
0 57 - G -0.000000
0 57 - - 0.000709
0 58 A A 0.000007
0 58 A C -0.001130
0 58 A U 0.000680
0 58 A G -0.001548
0 58 A - -0.000034
0 58 C A -0.000006
0 58 C C 0.001088
0 58 C U 0.000033
0 58 C G 0.000012
0 58 C - 0.000007
0 58 U A -0.000006
0 58 U C -0.000005
0 58 U U -0.000037
0 58 U G -0.000054
0 58 U - 0.000039
0 58 G A 0.000040
0 58 G C -0.000063
0 58 G U 0.000039
0 58 G G 0.000977
0 58 G - -0.000006
0 58 - A 0.000005
0 58 - C 0.000483
0 58 - U 0.000039
0 58 - G -0.000008
0 58 - - -0.000006
0 59 A A -0.000027
0 59 A C -0.005358
0 59 A U -0.000172
0 59 A G 0.000021
0 59 A - -0.000027
0 59 C A -0.000026
0 59 C C 0.001309
0 59 C U -0.000037
0 59 C G -0.000024
0 59 C - -0.000045
0 59 U A -0.000045
0 59 U C 0.000006
0 59 U U -0.000029
0 59 U G -0.000045
0 59 U - -0.000045
0 59 G A -0.000027
0 59 G C 0.000837
0 59 G U 0.000005
0 59 G G -0.000045
0 59 G - 0.000001
0 59 - A -0.000045
0 59 - C 0.000653
0 59 - U -0.000040
0 59 - G -0.000041
0 59 - - -0.000045
0 60 A A 0.000011
0 60 A C -0.018018
0 60 A U -0.000086
0 60 A G 0.000036
0 60 A - 0.000039
0 60 C A -0.000005
0 60 C C 0.001066
0 60 C U -0.000013
0 60 C G 0.000017
0 60 C - 0.000001
0 60 U A 0.000020
0 60 U C -0.000070
0 60 U U -0.000019
0 60 U G 0.000001
0 60 U - -0.000019
0 60 G A 0.000019
0 60 G C 0.000983
0 60 G U -0.000066
0 60 G G 0.000028
0 60 G - 0.000002
0 60 - A -0.000019
0 60 - C 0.000405
0 60 - U 0.000003
0 60 - G 0.000044
0 60 - - -0.000003
0 61 A A 0.001567
0 61 A C 0.000829
0 61 A U -0.101169
0 61 A G 0.001101
0 61 A - -0.000952
0 61 C A -0.000011
0 61 C C -0.000006
0 61 C U 0.001088
0 61 C G 0.000050
0 61 C - -0.000039
0 61 U A 0.000005
0 61 U C -0.000009
0 61 U U -0.000043
0 61 U G -0.000019
0 61 U - 0.000018
0 61 G A 0.000054
0 61 G C 0.000038
0 61 G U 0.000920
0 61 G G 0.000319
0 61 G - -0.000055
0 61 - A 0.000018
0 61 - C -0.000015
0 61 - U 0.000610
0 61 - G -0.000026
0 61 - - 0.000026
0 62 A A -0.004474
0 62 A C -0.000292
0 62 A U -0.007279
0 62 A G 0.005935
0 62 A - 0.000497
0 62 C A 0.000001
0 62 C C 0.000003
0 62 C U -0.000019
0 62 C G 0.000396
0 62 C - -0.000011
0 62 U A -0.000034
0 62 U C -0.000042
0 62 U U 0.000021
0 62 U G -0.000032
0 62 U - 0.000011
0 62 G A -0.000261
0 62 G C 0.001390
0 62 G U 0.000043
0 62 G G -0.000045
0 62 G - 0.000040
0 62 - A 0.000046
0 62 - C 0.000614
0 62 - U -0.000007
0 62 - G -0.000010
0 62 - - -0.000049
0 63 A A -0.000546
0 63 A C -0.001509
0 63 A U -0.000164
0 63 A G -0.000028
0 63 A - 0.000018
0 63 C A -0.000032
0 63 C C 0.000010
0 63 C U 0.000400
0 63 C G -0.000034
0 63 C - -0.000000
0 63 U A 0.000020
0 63 U C -0.000006
0 63 U U -0.000025
0 63 U G -0.000014
0 63 U - 0.000016
0 63 G A -0.000043
0 63 G C -0.000000
0 63 G U 0.000879
0 63 G G 0.000269
0 63 G - 0.000025
0 63 - A 0.000048
0 63 - C 0.000016
0 63 - U 0.000430
0 63 - G -0.000011
0 63 - - 0.000029
0 64 A A -0.000005
0 64 A C -0.000967
0 64 A U -0.055016
0 64 A G -0.000035
0 64 A - 0.000031
0 64 C A -0.000023
0 64 C C 0.000023
0 64 C U 0.000425
0 64 C G 0.000006
0 64 C - -0.000047
0 64 U A 0.000027
0 64 U C -0.000043
0 64 U U 0.000029
0 64 U G -0.000023
0 64 U - -0.000031
0 64 G A -0.000006
0 64 G C 0.000846
0 64 G U -0.000015
0 64 G G 0.000039
0 64 G - -0.000011
0 64 - A -0.000013
0 64 - C 0.000028
0 64 - U 0.000595
0 64 - G -0.000030
0 64 - - -0.000012
0 65 A A 0.000037
0 65 A C -0.003874
0 65 A U -0.005657
0 65 A G 0.001355
0 65 A - -0.000015
0 65 C A -0.000012
0 65 C C 0.001330
0 65 C U -0.000046
0 65 C G -0.000045
0 65 C - 0.000001
0 65 U A -0.000053
0 65 U C 0.000015
0 65 U U -0.000066
0 65 U G -0.000007
0 65 U - 0.000024
0 65 G A 0.000025
0 65 G C 0.000852
0 65 G U -0.000050
0 65 G G -0.000024
0 65 G - 0.000235
0 65 - A 0.000021
0 65 - C 0.000487
0 65 - U 0.000034
0 65 - G -0.000012