# NB_STEPS 3000
# UP_FREQ 1000
# TEMP 1.000000
# LAMBDA 0.050000
# ID_THRES 1.000000
# ALPHA 0.668064
0 0 A A -0.000636
0 0 C C 0.021916
0 0 U U -0.005592
0 0 G G -0.005957
0 0 - - 0.008719
0 1 A A 0.000043
0 1 A C -0.094177
0 1 A U 0.000796
0 1 A G 0.000813
0 1 A - 0.000038
0 1 C A 0.000053
0 1 C C 0.006212
0 1 C U 0.000000
0 1 C G -0.000003
0 1 C - -0.000017
0 1 U A 0.001235
0 1 U C -0.000683
0 1 U U -0.000208
0 1 U G 0.000029
0 1 U - -0.000008
0 1 G A 0.000051
0 1 G C -0.052996
0 1 G U 0.000681
0 1 G G 0.000021
0 1 G - -0.000034
0 1 - A 0.000020
0 1 - C 0.007521
0 1 - U 0.000032
0 1 - G -0.000024
0 1 - - -0.000033
0 2 A A -0.002471
0 2 A C -0.000030
0 2 A U 0.000576
0 2 A G -0.000036
0 2 A - 0.000032
0 2 C A 0.030030
0 2 C C 0.000032
0 2 C U -0.000011
0 2 C G 0.000042
0 2 C - 0.000020
0 2 U A -0.006201
0 2 U C 0.000016
0 2 U U -0.000047
0 2 U G -0.000013
0 2 U - 0.000019
0 2 G A -0.017035
0 2 G C 0.000013
0 2 G U -0.000028
0 2 G G 0.000561
0 2 G - -0.000023
0 2 - A 0.007268
0 2 - C -0.000026
0 2 - U -0.000026
0 2 - G 0.000030
0 2 - - 0.000009
0 3 A A 0.000042
0 3 A C 0.001649
0 3 A U -0.004693
0 3 A G 0.000048
0 3 A - -0.000037
0 3 C A 0.000031
0 3 C C 0.000012
0 3 C U 0.019932
0 3 C G -0.000005
0 3 C - -0.000016
0 3 U A -0.000006
0 3 U C 0.000043
0 3 U U -0.006393
0 3 U G 0.000044
0 3 U - 0.000016
0 3 G A -0.000040
0 3 G C -0.000019
0 3 G U -0.011974
0 3 G G 0.000027
0 3 G - 0.000035
0 3 - A -0.000016
0 3 - C -0.000016
0 3 - U 0.008934
0 3 - G 0.000002
0 3 - - -0.000016
0 4 A A 0.000018
0 4 A C -0.013839
0 4 A U -0.000011
0 4 A G 0.001738
0 4 A - 0.000040
0 4 C A -0.000042
0 4 C C 0.003779
0 4 C U -0.000010
0 4 C G -0.000011
0 4 C - -0.000027
0 4 U A 0.000161
0 4 U C -0.191392
0 4 U U 0.000005
0 4 U G 0.000047
0 4 U - 0.000017
0 4 G A -0.000189
0 4 G C -0.000464
0 4 G U -0.000926
0 4 G G 0.000851
0 4 G - 0.000679
0 4 - A -0.000007
0 4 - C 0.003193
0 4 - U -0.000031
0 4 - G -0.000014
0 4 - - 0.000094
0 5 A A -0.052053
0 5 A C 0.000015
0 5 A U -0.000001
0 5 A G 0.000019
0 5 A - 0.000011
0 5 C A 0.005290
0 5 C C -0.000022
0 5 C U -0.000030
0 5 C G 0.000003
0 5 C - -0.000001
0 5 U A -0.029541
0 5 U C -0.000021
0 5 U U 0.000042
0 5 U G 0.000030
0 5 U - -0.000046
0 5 G A -0.001596
0 5 G C -0.000064
0 5 G U -0.001029
0 5 G G 0.002219
0 5 G - 0.000240
0 5 - A 0.005352
0 5 - C 0.000034
0 5 - U -0.000002
0 5 - G -0.000030
0 5 - - -0.000025
0 6 A A -0.000805
0 6 A C -0.000004
0 6 A U 0.000010
0 6 A G 0.001403
0 6 A - 0.000316
0 6 C A 0.005631
0 6 C C 0.000007
0 6 C U 0.000037
0 6 C G 0.000040
0 6 C - -0.000041
0 6 U A 0.000251
0 6 U C -0.000050
0 6 U U -0.000033
0 6 U G -0.000005
0 6 U - 0.000023
0 6 G A -0.138355
0 6 G C 0.000998
0 6 G U -0.000028
0 6 G G -0.000068
0 6 G - -0.000007
0 6 - A 0.000028
0 6 - C -0.000014
0 6 - U 0.000032
0 6 - G 0.001035
0 6 - - 0.000046
0 7 A A 0.000677
0 7 A C -0.000027
0 7 A U 0.000000
0 7 A G -0.000698
0 7 A - 0.000040
0 7 C A 0.000042
0 7 C C -0.000041
0 7 C U -0.000043
0 7 C G 0.023867
0 7 C - 0.000023
0 7 U A -0.000048
0 7 U C -0.000026
0 7 U U 0.000040
0 7 U G -0.004767
0 7 U - -0.000029
0 7 G A -0.000030
0 7 G C -0.000008
0 7 G U 0.000001
0 7 G G -0.030692
0 7 G - 0.000032
0 7 - A -0.000044
0 7 - C 0.000043
0 7 - U -0.000037
0 7 - G 0.008684
0 7 - - 0.000023
0 8 A A -0.008229
0 8 A C -0.000041
0 8 A U 0.000041
0 8 A G -0.000037
0 8 A - 0.000020
0 8 C A 0.015678
0 8 C C 0.000012
0 8 C U -0.000039
0 8 C G -0.000024
0 8 C - 0.000003
0 8 U A -0.004949
0 8 U C 0.000017
0 8 U U 0.000012
0 8 U G 0.000019
0 8 U - -0.000001
0 8 G A -0.015337
0 8 G C -0.000008
0 8 G U 0.000019
0 8 G G 0.000048
0 8 G - 0.000029
0 8 - A 0.009016
0 8 - C -0.000023
0 8 - U -0.000021
0 8 - G -0.000003
0 8 - - -0.000024
0 9 A A 0.000096
0 9 A C -0.000046
0 9 A U 0.000040
0 9 A G -0.003322
0 9 A - 0.000030
0 9 C A -0.000012
0 9 C C -0.000045
0 9 C U -0.000027
0 9 C G 0.006419
0 9 C - -0.000012
0 9 U A -0.008547
0 9 U C 0.000030
0 9 U U -0.000027
0 9 U G 0.000199
0 9 U - -0.000012
0 9 G A -0.000424
0 9 G C -0.000008
0 9 G U -0.000051
0 9 G G -0.072977
0 9 G - -0.000019
0 9 - A -0.000031
0 9 - C 0.000028
0 9 - U -0.000045
0 9 - G 0.006095
0 9 - - 0.000043
0 10 A A -0.000427
0 10 A C 0.000016
0 10 A U -0.000481
0 10 A G 0.000465
0 10 A - 0.002831
0 10 C A -0.000010
0 10 C C 0.000036
0 10 C U -0.000019
0 10 C G 0.000015
0 10 C - -0.000035
0 10 U A -0.000056
0 10 U C -0.000045
0 10 U U 0.000011
0 10 U G 0.000025
0 10 U - 0.000715
0 10 G A -0.000045
0 10 G C 0.001554
0 10 G U -0.000551
0 10 G G 0.000254
0 10 G - -0.007764
0 10 - A -0.000022
0 10 - C 0.000038
0 10 - U 0.000049
0 10 - G 0.000853
0 10 - - -0.000013
0 11 A A -0.000219
0 11 A C 0.000021
0 11 A U 0.000924
0 11 A G 0.000850
0 11 A - -0.000034
0 11 C A 0.000213
0 11 C C -0.000016
0 11 C U 0.000001
0 11 C G -0.000008
0 11 C - -0.000037
0 11 U A -0.000007
0 11 U C -0.000023
0 11 U U -0.000180
0 11 U G -0.000049
0 11 U - 0.000966
0 11 G A -0.001244
0 11 G C 0.001232
0 11 G U -0.000849
0 11 G G -0.000715
0 11 G - 0.000625
0 11 - A -0.000043
0 11 - C 0.000967
0 11 - U -0.000017
0 11 - G 0.000220
0 11 - - -0.000011
0 12 A A -0.000062
0 12 A C 0.000689
0 12 A U 0.000611
0 12 A G -0.002473
0 12 A - 0.000659
0 12 C A 0.000015
0 12 C C 0.000020
0 12 C U -0.000034
0 12 C G 0.002213
0 12 C - -0.000000
0 12 U A 0.000028
0 12 U C 0.000970
0 12 U U -0.000021
0 12 U G -0.000090
0 12 U - -0.000037
0 12 G A -0.000281
0 12 G C -0.000116
0 12 G U -0.000303
0 12 G G -0.003738
0 12 G - 0.000740
0 12 - A 0.000047
0 12 - C 0.000036
0 12 - U -0.000021
0 12 - G 0.001924
0 12 - - 0.000001
0 13 A A -0.000085
0 13 A C -0.000083
0 13 A U 0.000351
0 13 A G -0.000726
0 13 A - 0.000856
0 13 C A -0.000004
0 13 C C 0.000039
0 13 C U -0.000038
0 13 C G 0.001317
0 13 C - -0.000041
0 13 U A 0.000013
0 13 U C -0.000092
0 13 U U 0.000997
0 13 U G 0.001493
0 13 U - -0.000020
0 13 G A -0.000091
0 13 G C 0.000167
0 13 G U 0.001020
0 13 G G -0.049053
0 13 G - 0.002039
0 13 - A -0.000047
0 13 - C 0.000041
0 13 - U -0.000025
0 13 - G 0.001942
0 13 - - 0.000040
0 14 A A 0.002957
0 14 A C 0.000011
0 14 A U -0.001122
0 14 A G 0.000885
0 14 A - -0.000267
0 14 C A 0.000024
0 14 C C 0.000041
0 14 C U -0.000047
0 14 C G -0.000010
0 14 C - 0.000003
0 14 U A -0.000073
0 14 U C 0.001006
0 14 U U -0.000008
0 14 U G -0.000027
0 14 U - 0.001051
0 14 G A -0.003049
0 14 G C 0.000115
0 14 G U 0.000550
0 14 G G -0.000467
0 14 G - -0.059329
0 14 - A 0.000031
0 14 - C 0.000016
0 14 - U 0.000915
0 14 - G 0.000002
0 14 - - 0.000014
0 15 A A -0.206440
0 15 A C 0.000769
0 15 A U 0.000862
0 15 A G -0.000055
0 15 A - -0.000039
0 15 C A 0.007589
0 15 C C 0.000021
0 15 C U 0.000041
0 15 C G -0.000020
0 15 C - 0.000038
0 15 U A 0.000690
0 15 U C 0.000019
0 15 U U 0.000045
0 15 U G -0.000031
0 15 U - -0.000011
0 15 G A -0.004953
0 15 G C 0.003041
0 15 G U 0.000990
0 15 G G 0.000003
0 15 G - -0.000195
0 15 - A 0.007555
0 15 - C -0.000042
0 15 - U 0.000048
0 15 - G -0.000026
0 15 - - 0.000024
0 16 A A 0.001152
0 16 A C -0.000157
0 16 A U -0.000009
0 16 A G 0.001364
0 16 A - 0.000011
0 16 C A -0.000030
0 16 C C -0.000002
0 16 C U 0.000007
0 16 C G -0.000025
0 16 C - -0.000035
0 16 U A -0.000065
0 16 U C -0.000076
0 16 U U 0.001024
0 16 U G 0.000019
0 16 U - -0.000022
0 16 G A -0.014515
0 16 G C 0.003775
0 16 G U -0.000328
0 16 G G 0.002080
0 16 G - -0.000631
0 16 - A 0.000013
0 16 - C 0.000929
0 16 - U -0.000005
0 16 - G -0.000018
0 16 - - -0.000041
0 17 A A 0.000786
0 17 A C -0.000592
0 17 A U 0.000001
0 17 A G 0.000509
0 17 A - 0.000036
0 17 C A -0.000015
0 17 C C 0.003483
0 17 C U -0.000009
0 17 C G -0.000037
0 17 C - -0.000018
0 17 U A -0.000075
0 17 U C 0.000460
0 17 U U -0.000013
0 17 U G -0.000385
0 17 U - -0.000016
0 17 G A 0.000842
0 17 G C -0.020006
0 17 G U 0.001939
0 17 G G -0.001102
0 17 G - 0.000467
0 17 - A -0.000025
0 17 - C 0.002686
0 17 - U -0.000037
0 17 - G 0.000026
0 17 - - -0.000028
0 18 A A 0.000531
0 18 A C -0.001109
0 18 A U 0.000275
0 18 A G -0.000010
0 18 A - -0.000015
0 18 C A 0.000020
0 18 C C 0.001851
0 18 C U -0.000008
0 18 C G -0.000043
0 18 C - 0.000020
0 18 U A -0.000036
0 18 U C 0.000801
0 18 U U -0.000065
0 18 U G -0.000030
0 18 U - -0.000020
0 18 G A 0.000364
0 18 G C -0.011167
0 18 G U -0.000896
0 18 G G 0.000373
0 18 G - 0.000016
0 18 - A 0.000042
0 18 - C 0.000881
0 18 - U -0.000012
0 18 - G 0.000050
0 18 - - -0.000031
0 19 A A 0.000926
0 19 A C 0.000898
0 19 A U -0.000534
0 19 A G -0.000042
0 19 A - 0.000429
0 19 C A 0.000023
0 19 C C 0.000012
0 19 C U -0.000032
0 19 C G -0.000001
0 19 C - -0.000004
0 19 U A 0.000754
0 19 U C -0.000052
0 19 U U 0.000644
0 19 U G 0.000269
0 19 U - -0.000017
0 19 G A -0.000481
0 19 G C -0.000661
0 19 G U -0.001165
0 19 G G -0.000052
0 19 G - 0.002046
0 19 - A -0.000013
0 19 - C 0.000872
0 19 - U 0.000001
0 19 - G 0.000045
0 19 - - -0.000034
0 20 A A -0.000054
0 20 A C -0.016672
0 20 A U 0.000786
0 20 A G 0.000023
0 20 A - 0.000037
0 20 C A -0.000045
0 20 C C 0.004098
0 20 C U 0.000022
0 20 C G 0.000031
0 20 C - -0.000040
0 20 U A -0.000041
0 20 U C 0.000484
0 20 U U -0.000220
0 20 U G -0.000003
0 20 U - 0.000025
0 20 G A 0.000029
0 20 G C -0.032074
0 20 G U -0.002027
0 20 G G 0.000288
0 20 G - 0.000060
0 20 - A 0.000016
0 20 - C 0.003447
0 20 - U -0.000012
0 20 - G 0.000020
0 20 - - -0.000002
0 21 A A 0.000750
0 21 A C 0.000032
0 21 A U 0.000477
0 21 A G -0.000491
0 21 A - 0.000029
0 21 C A 0.000363
0 21 C C 0.000048
0 21 C U 0.000478
0 21 C G -0.000038
0 21 C - 0.000038
0 21 U A -0.010047
0 21 U C -0.000031
0 21 U U 0.000034
0 21 U G 0.001639
0 21 U - 0.000028
0 21 G A 0.001455
0 21 G C -0.000030
0 21 G U -0.000006
0 21 G G -0.075915
0 21 G - 0.000747
0 21 - A 0.000344
0 21 - C 0.000018
0 21 - U -0.000005
0 21 - G 0.001073
0 21 - - -0.000018
0 22 A A -0.000004
0 22 A C -0.014533
0 22 A U 0.000037
0 22 A G -0.000850
0 22 A - 0.000667
0 22 C A 0.000020
0 22 C C 0.001007
0 22 C U 0.000029
0 22 C G -0.000017
0 22 C - 0.000014
0 22 U A -0.000035
0 22 U C -0.000587
0 22 U U -0.000016
0 22 U G 0.000436
0 22 U - 0.000039
0 22 G A -0.000020
0 22 G C -0.005303
0 22 G U 0.000022
0 22 G G -0.001782
0 22 G - 0.000062
0 22 - A 0.000045
0 22 - C 0.002070
0 22 - U 0.000028
0 22 - G 0.000882
0 22 - - 0.000013
0 23 A A 0.000010
0 23 A C -0.000716
0 23 A U 0.000015
0 23 A G 0.000026
0 23 A - -0.000035
0 23 C A 0.000001
0 23 C C 0.007901
0 23 C U 0.000014
0 23 C G 0.000008
0 23 C - 0.000024
0 23 U A 0.000017
0 23 U C -0.005738
0 23 U U -0.000038
0 23 U G 0.000025
0 23 U - -0.000018
0 23 G A 0.000034
0 23 G C -0.016789
0 23 G U 0.000007
0 23 G G -0.000023
0 23 G - 0.000044
0 23 - A 0.000014
0 23 - C 0.009260
0 23 - U -0.000018
0 23 - G -0.000001
0 23 - - 0.000002
0 24 A A -0.000394
0 24 A C 0.000020
0 24 A U 0.000023
0 24 A G 0.000013
0 24 A - -0.000038
0 24 C A 0.018192
0 24 C C -0.000011
0 24 C U 0.000023
0 24 C G -0.000000
0 24 C - -0.000011
0 24 U A -0.010164
0 24 U C 0.000001
0 24 U U 0.000027
0 24 U G -0.000022
0 24 U - 0.000007
0 24 G A -0.019870
0 24 G C -0.000009
0 24 G U -0.000036
0 24 G G 0.000030
0 24 G - 0.000047
0 24 - A 0.007702
0 24 - C -0.000043
0 24 - U -0.000011
0 24 - G -0.000011
0 24 - - 0.000023
0 25 A A -0.008047
0 25 A C -0.000014
0 25 A U -0.000041
0 25 A G -0.000014
0 25 A - 0.000006
0 25 C A 0.018198
0 25 C C -0.000033
0 25 C U -0.000022
0 25 C G -0.000027
0 25 C - 0.000036
0 25 U A -0.004856
0 25 U C -0.000014
0 25 U U 0.000028
0 25 U G -0.000050
0 25 U - 0.000018
0 25 G A -0.009559
0 25 G C -0.000038
0 25 G U 0.000009
0 25 G G -0.000005
0 25 G - -0.000014
0 25 - A 0.010253
0 25 - C -0.000014
0 25 - U -0.000047
0 25 - G 0.000036
0 25 - - 0.000036
0 26 A A -0.000046
0 26 A C -0.002963
0 26 A U -0.000010
0 26 A G -0.000022
0 26 A - -0.000045
0 26 C A -0.000046
0 26 C C 0.015301
0 26 C U 0.000004
0 26 C G -0.000046
0 26 C - -0.000038
0 26 U A -0.000016
0 26 U C -0.004893
0 26 U U -0.000029
0 26 U G 0.000013
0 26 U - -0.000041
0 26 G A -0.000010
0 26 G C -0.011403
0 26 G U 0.000042
0 26 G G 0.000049
0 26 G - -0.000016
0 26 - A 0.000045
0 26 - C 0.010126
0 26 - U -0.000046
0 26 - G -0.000046
0 26 - - -0.000047
0 27 A A -0.000032
0 27 A C -0.001048
0 27 A U 0.000017
0 27 A G 0.000750
0 27 A - -0.000030
0 27 C A 0.000041
0 27 C C 0.016821
0 27 C U 0.000042
0 27 C G -0.000038
0 27 C - 0.000042
0 27 U A 0.000045
0 27 U C -0.006102
0 27 U U 0.000027
0 27 U G -0.000009
0 27 U - 0.000043
0 27 G A -0.000014
0 27 G C -0.016923
0 27 G U -0.000006
0 27 G G 0.000028
0 27 G - -0.000023
0 27 - A 0.000041
0 27 - C 0.009327
0 27 - U -0.000044
0 27 - G 0.000041
0 27 - - -0.000043
0 28 A A -0.000015
0 28 A C 0.000013
0 28 A U -0.001732
0 28 A G 0.001012
0 28 A - 0.000002
0 28 C A -0.000011
0 28 C C -0.000049
0 28 C U 0.003079
0 28 C G 0.000006
0 28 C - -0.000042
0 28 U A 0.000038
0 28 U C -0.000014
0 28 U U 0.000094
0 28 U G -0.000071
0 28 U - -0.000031
0 28 G A -0.000047
0 28 G C -0.000005
0 28 G U -0.008117
0 28 G G -0.004708
0 28 G - 0.000043
0 28 - A -0.000011
0 28 - C -0.000025
0 28 - U -0.000012
0 28 - G -0.000045
0 28 - - 0.000258
0 29 A A 0.001351
0 29 A C -0.000043
0 29 A U 0.000039
0 29 A G -0.042173
0 29 A - -0.000044
0 29 C A 0.000049
0 29 C C -0.000037
0 29 C U -0.000028
0 29 C G 0.003506
0 29 C - -0.000037
0 29 U A -0.000004
0 29 U C 0.000016
0 29 U U -0.000014
0 29 U G -0.002078
0 29 U - 0.000041
0 29 G A -0.038018
0 29 G C 0.000020
0 29 G U -0.000033
0 29 G G -0.000886
0 29 G - -0.000036
0 29 - A 0.000966
0 29 - C -0.000019
0 29 - U -0.000017
0 29 - G 0.001799
0 29 - - -0.000036
0 30 A A 0.000694
0 30 A C 0.000417
0 30 A U 0.000047
0 30 A G 0.000032
0 30 A - 0.000024
0 30 C A 0.000014
0 30 C C 0.000553
0 30 C U 0.000019
0 30 C G 0.001171
0 30 C - 0.000008
0 30 U A 0.000006
0 30 U C -0.013482
0 30 U U -0.000041
0 30 U G -0.000086
0 30 U - -0.000024
0 30 G A -0.000042
0 30 G C -0.001060
0 30 G U 0.000038
0 30 G G -0.059786
0 30 G - -0.000001
0 30 - A -0.000024
0 30 - C 0.001881
0 30 - U 0.000027
0 30 - G 0.000917
0 30 - - 0.000022
0 31 A A 0.000125
0 31 A C 0.001766
0 31 A U -0.000071
0 31 A G 0.000090
0 31 A - -0.000017
0 31 C A 0.000020
0 31 C C 0.000115
0 31 C U -0.000001
0 31 C G -0.000030
0 31 C - -0.000024
0 31 U A 0.000965
0 31 U C -0.000170
0 31 U U -0.000040
0 31 U G 0.000022
0 31 U - -0.000006
0 31 G A -0.000049
0 31 G C -0.000382
0 31 G U -0.183882
0 31 G G 0.002350
0 31 G - 0.000024
0 31 - A 0.001018
0 31 - C 0.001377
0 31 - U 0.000040
0 31 - G -0.000005
0 31 - - -0.000038
0 32 A A -0.000063
0 32 A C -0.000001
0 32 A U 0.000843
0 32 A G -0.000015
0 32 A - -0.000449
0 32 C A 0.000006
0 32 C C -0.000011
0 32 C U 0.000009
0 32 C G 0.000040
0 32 C - 0.021914
0 32 U A 0.000005
0 32 U C -0.000041
0 32 U U 0.000003
0 32 U G -0.000059
0 32 U - -0.002373
0 32 G A -0.000015
0 32 G C -0.000019
0 32 G U -0.000026
0 32 G G -0.000017
0 32 G - -0.010861
0 32 - A -0.000007
0 32 - C 0.000028
0 32 - U 0.000003
0 32 - G -0.000041
0 32 - - 0.005793
0 33 A A 0.000492
0 33 A C -0.000029
0 33 A U -0.000603
0 33 A G 0.002493
0 33 A - -0.000002
0 33 C A 0.000038
0 33 C C -0.000025
0 33 C U 0.000014
0 33 C G 0.000018
0 33 C - 0.000000
0 33 U A -0.006572
0 33 U C -0.000016
0 33 U U 0.001006
0 33 U G -0.000009
0 33 U - 0.000024
0 33 G A -0.001012
0 33 G C -0.000192
0 33 G U -0.005564
0 33 G G -0.000064
0 33 G - 0.000534
0 33 - A 0.000013
0 33 - C 0.000014
0 33 - U 0.000002
0 33 - G 0.000312
0 33 - - -0.000035
0 34 A A -0.000143
0 34 A C 0.000317
0 34 A U 0.000560
0 34 A G 0.000627
0 34 A - -0.000085
0 34 C A -0.000040
0 34 C C -0.000003
0 34 C U 0.000025
0 34 C G 0.000345
0 34 C - -0.000037
0 34 U A -0.000015
0 34 U C 0.000439
0 34 U U 0.000660
0 34 U G 0.000020
0 34 U - 0.000004
0 34 G A -0.000641
0 34 G C -0.000517
0 34 G U 0.000368
0 34 G G -0.000351
0 34 G - 0.000909
0 34 - A -0.000014
0 34 - C -0.000027
0 34 - U 0.000254
0 34 - G 0.000850
0 34 - - 0.000002
0 35 A A 0.001009
0 35 A C -0.002740
0 35 A U -0.000033
0 35 A G 0.002749
0 35 A - -0.000019
0 35 C A -0.000040
0 35 C C -0.000012
0 35 C U -0.000022
0 35 C G 0.000025
0 35 C - 0.000019
0 35 U A -0.017836
0 35 U C 0.000001
0 35 U U -0.000040
0 35 U G -0.000036
0 35 U - 0.000113
0 35 G A -0.000508
0 35 G C -0.003930
0 35 G U -0.000281
0 35 G G 0.000730
0 35 G - 0.000267
0 35 - A 0.000011
0 35 - C 0.000256
0 35 - U 0.000050
0 35 - G 0.000013
0 35 - - -0.000009
0 36 A A 0.000433
0 36 A C 0.000755
0 36 A U 0.000635
0 36 A G -0.000058
0 36 A - 0.000792
0 36 C A -0.000023
0 36 C C 0.005028
0 36 C U -0.000000
0 36 C G 0.000032
0 36 C - 0.000050
0 36 U A -0.313797
0 36 U C 0.000557
0 36 U U 0.000994
0 36 U G 0.000052
0 36 U - -0.000015
0 36 G A 0.000451
0 36 G C -0.050441
0 36 G U -0.000371
0 36 G G 0.000684
0 36 G - 0.010195
0 36 - A 0.000461
0 36 - C 0.001557
0 36 - U 0.000010
0 36 - G 0.000048
0 36 - - 0.000029
0 37 A A 0.000020
0 37 A C -0.001201
0 37 A U 0.001464
0 37 A G -0.000045
0 37 A - 0.000970
0 37 C A -0.000048
0 37 C C -0.000047
0 37 C U 0.000065
0 37 C G 0.000033
0 37 C - -0.000038
0 37 U A 0.000014
0 37 U C -0.000794
0 37 U U 0.000039
0 37 U G -0.000007
0 37 U - -0.000053
0 37 G A 0.000495
0 37 G C -0.000123
0 37 G U -0.002494
0 37 G G -0.000294
0 37 G - 0.001469
0 37 - A -0.000003
0 37 - C -0.000034
0 37 - U 0.000027
0 37 - G 0.000287
0 37 - - -0.000006
0 38 A A 0.001512
0 38 A C 0.000028
0 38 A U 0.000852
0 38 A G -0.000013
0 38 A - -0.010936
0 38 C A 0.000022
0 38 C C -0.000032
0 38 C U -0.000039
0 38 C G -0.000046
0 38 C - 0.005477
0 38 U A 0.000001
0 38 U C 0.000076
0 38 U U -0.000040
0 38 U G -0.000054
0 38 U - -0.004562
0 38 G A -0.000139
0 38 G C 0.000012
0 38 G U 0.000767
0 38 G G 0.000004
0 38 G - -0.001578
0 38 - A 0.000009
0 38 - C -0.000023
0 38 - U 0.000015
0 38 - G 0.000041
0 38 - - 0.002786
0 39 A A 0.001756
0 39 A C -0.000008
0 39 A U 0.000103
0 39 A G -0.009904
0 39 A - 0.000028
0 39 C A -0.000006
0 39 C C 0.000042
0 39 C U 0.000036
0 39 C G -0.000022
0 39 C - -0.000042
0 39 U A -0.004541
0 39 U C 0.000009
0 39 U U 0.000967
0 39 U G -0.000258
0 39 U - -0.000029
0 39 G A -0.004898
0 39 G C 0.000026
0 39 G U -0.000458
0 39 G G 0.000344
0 39 G - 0.000014
0 39 - A 0.000013
0 39 - C 0.000033
0 39 - U 0.000012
0 39 - G 0.000962
0 39 - - -0.000019
0 40 A A 0.000534
0 40 A C 0.000235
0 40 A U -0.000001
0 40 A G 0.000524
0 40 A - 0.000042
0 40 C A 0.000008
0 40 C C 0.000083
0 40 C U -0.000017
0 40 C G 0.000453
0 40 C - -0.000018
0 40 U A -0.000045
0 40 U C -0.000048
0 40 U U -0.000007
0 40 U G -0.011530
0 40 U - -0.000015
0 40 G A 0.000012
0 40 G C -0.045269
0 40 G U 0.000011
0 40 G G -0.000929
0 40 G - 0.000024
0 40 - A 0.000005
0 40 - C 0.000900
0 40 - U 0.000016
0 40 - G 0.001734
0 40 - - 0.000001
0 41 A A 0.000015
0 41 A C -0.066796
0 41 A U 0.000724
0 41 A G 0.000012
0 41 A - 0.000015
0 41 C A -0.000006
0 41 C C 0.003308
0 41 C U -0.000022
0 41 C G 0.000023
0 41 C - 0.000051
0 41 U A -0.000042
0 41 U C -0.003700
0 41 U U 0.000014
0 41 U G -0.000027
0 41 U - 0.000006
0 41 G A -0.000037
0 41 G C -0.001018
0 41 G U -0.052363
0 41 G G 0.001540
0 41 G - 0.000135
0 41 - A 0.000340
0 41 - C 0.000101
0 41 - U -0.000008
0 41 - G 0.000043
0 41 - - 0.000007
0 42 A A -0.000484
0 42 A C -0.000030
0 42 A U 0.000001
0 42 A G -0.000048
0 42 A - -0.000004
0 42 C A 0.012297
0 42 C C -0.000039
0 42 C U 0.000041
0 42 C G 0.000030
0 42 C - -0.000014
0 42 U A -0.007026
0 42 U C 0.000042
0 42 U U -0.000029
0 42 U G -0.000033
0 42 U - 0.000955
0 42 G A -0.016804
0 42 G C 0.000399
0 42 G U 0.000040
0 42 G G -0.000026
0 42 G - 0.000029
0 42 - A 0.008375
0 42 - C 0.000047
0 42 - U -0.000042
0 42 - G -0.000045
0 42 - - -0.000046
0 43 A A -0.000980
0 43 A C 0.000909
0 43 A U 0.000019
0 43 A G 0.000008
0 43 A - 0.000048
0 43 C A 0.005374
0 43 C C 0.000028
0 43 C U 0.000002
0 43 C G -0.000036
0 43 C - 0.000027
0 43 U A 0.000004
0 43 U C -0.000055
0 43 U U 0.000048
0 43 U G -0.000003
0 43 U - -0.000000
0 43 G A -0.009783
0 43 G C 0.001478
0 43 G U 0.000030
0 43 G G -0.000019
0 43 G - -0.000030
0 43 - A -0.000023
0 43 - C 0.000892
0 43 - U 0.000010
0 43 - G -0.000035
0 43 - - -0.000033
0 44 A A 0.000722
0 44 A C -0.000010
0 44 A U -0.000046
0 44 A G -0.002180
0 44 A - 0.000022
0 44 C A 0.000021
0 44 C C 0.000018
0 44 C U -0.000004
0 44 C G 0.030715
0 44 C - 0.000016
0 44 U A -0.000035
0 44 U C 0.000011
0 44 U U 0.000019
0 44 U G -0.006684
0 44 U - -0.000047
0 44 G A -0.000018
0 44 G C 0.000015
0 44 G U 0.000938
0 44 G G -0.013553
0 44 G - -0.000033
0 44 - A 0.000048
0 44 - C -0.000004
0 44 - U -0.000004
0 44 - G 0.008494
0 44 - - 0.000007
0 45 A A -0.000010
0 45 A C -0.000023
0 45 A U -0.000005
0 45 A G -0.004907
0 45 A - 0.000026
0 45 C A -0.000009
0 45 C C 0.000039
0 45 C U 0.000045
0 45 C G 0.013460
0 45 C - 0.000039
0 45 U A -0.000036
0 45 U C -0.000024
0 45 U U 0.000045
0 45 U G -0.004764
0 45 U - -0.000005
0 45 G A -0.000008
0 45 G C 0.000024
0 45 G U -0.000004
0 45 G G -0.008965
0 45 G - 0.000039
0 45 - A 0.000039
0 45 - C 0.000039
0 45 - U 0.000045
0 45 - G 0.009386
0 45 - - 0.000039
0 46 A A -0.000037
0 46 A C -0.000035
0 46 A U -0.005734
0 46 A G 0.000027
0 46 A - -0.000028
0 46 C A 0.000034
0 46 C C 0.000031
0 46 C U 0.026946
0 46 C G 0.000047
0 46 C - 0.000036
0 46 U A -0.000034
0 46 U C -0.000030
0 46 U U -0.004930
0 46 U G -0.000050
0 46 U - -0.000002
0 46 G A 0.000032
0 46 G C -0.000043
0 46 G U -0.011062
0 46 G G 0.000030
0 46 G - -0.000015
0 46 - A 0.000021
0 46 - C 0.000021
0 46 - U 0.008351
0 46 - G -0.000048
0 46 - - 0.000032
0 47 A A -0.000029
0 47 A C -0.000030
0 47 A U -0.000002
0 47 A G -0.000313
0 47 A - 0.000044
0 47 C A -0.000041
0 47 C C -0.000008
0 47 C U -0.000034
0 47 C G 0.022175
0 47 C - -0.000046
0 47 U A -0.000007
0 47 U C -0.000003
0 47 U U 0.000042
0 47 U G -0.005897
0 47 U - 0.000042
0 47 G A -0.000024
0 47 G C -0.000007
0 47 G U 0.000088
0 47 G G -0.013475
0 47 G - -0.000039
0 47 - A -0.000022
0 47 - C -0.000029
0 47 - U 0.000042
0 47 - G 0.010040
0 47 - - -0.000046
0 48 A A -0.000017
0 48 A C -0.000998
0 48 A U -0.000036
0 48 A G -0.005680
0 48 A - 0.000026
0 48 C A 0.000043
0 48 C C 0.000737
0 48 C U 0.000036
0 48 C G -0.000036
0 48 C - -0.000040
0 48 U A 0.000000
0 48 U C 0.000357
0 48 U U 0.000032
0 48 U G -0.000587
0 48 U - -0.000041
0 48 G A 0.000970
0 48 G C -0.003228
0 48 G U 0.000035
0 48 G G -0.009423
0 48 G - 0.000617
0 48 - A 0.000026
0 48 - C 0.000896
0 48 - U -0.000039
0 48 - G 0.003244
0 48 - - -0.000042
0 49 A A 0.000376
0 49 A C 0.000219
0 49 A U 0.000293
0 49 A G -0.000034
0 49 A - 0.000018
0 49 C A 0.000016
0 49 C C -0.000042
0 49 C U 0.002826
0 49 C G -0.000042
0 49 C - 0.000028
0 49 U A -0.000031
0 49 U C 0.000206
0 49 U U -0.166154
0 49 U G 0.000026
0 49 U - 0.000005
0 49 G A -0.001367
0 49 G C -0.001024
0 49 G U 0.000678
0 49 G G 0.000141
0 49 G - -0.000023
0 49 - A 0.000026
0 49 - C -0.000010
0 49 - U 0.000381
0 49 - G 0.000042
0 49 - - 0.000040
0 50 A A 0.000808
0 50 A C 0.000025
0 50 A U -0.000376
0 50 A G 0.000716
0 50 A - 0.000007
0 50 C A 0.000036
0 50 C C -0.000010
0 50 C U 0.003368
0 50 C G -0.000018
0 50 C - -0.000020
0 50 U A -0.000252
0 50 U C 0.000964
0 50 U U -0.000178
0 50 U G 0.000017
0 50 U - 0.000160
0 50 G A -0.003973
0 50 G C 0.000669
0 50 G U 0.000142
0 50 G G -0.001226
0 50 G - 0.001178
0 50 - A -0.000013
0 50 - C -0.000028
0 50 - U 0.000924
0 50 - G 0.000043
0 50 - - -0.000011
0 51 A A -0.000098
0 51 A C 0.000430
0 51 A U -0.000007
0 51 A G 0.001310
0 51 A - 0.000496
0 51 C A -0.000010
0 51 C C 0.000010
0 51 C U -0.000042
0 51 C G -0.000034
0 51 C - 0.003952
0 51 U A -0.000047
0 51 U C -0.000045
0 51 U U -0.000053
0 51 U G -0.000023
0 51 U - 0.000643
0 51 G A 0.000364
0 51 G C -0.000090
0 51 G U 0.001743
0 51 G G -0.000069
0 51 G - -0.005473
0 51 - A 0.000880
0 51 - C -0.000012
0 51 - U 0.000033
0 51 - G -0.000008
0 51 - - -0.000013
0 52 A A 0.001968
0 52 A C 0.000619
0 52 A U 0.000037
0 52 A G -0.000041
0 52 A - -0.015348
0 52 C A -0.000037
0 52 C C 0.000038
0 52 C U -0.000041
0 52 C G -0.000021
0 52 C - -0.000043
0 52 U A -0.003073
0 52 U C -0.000033
0 52 U U -0.000015
0 52 U G 0.001596
0 52 U - -0.000508
0 52 G A -0.001685
0 52 G C 0.000041
0 52 G U -0.003414
0 52 G G -0.000381
0 52 G - 0.000691
0 52 - A 0.000812
0 52 - C -0.000038
0 52 - U 0.000015
0 52 - G -0.000011
0 52 - - 0.000009
0 53 A A 0.001875
0 53 A C -0.000021
0 53 A U -0.000045
0 53 A G -0.000035
0 53 A - -0.007093
0 53 C A 0.002959
0 53 C C 0.000042
0 53 C U 0.000017
0 53 C G 0.000044
0 53 C - -0.000011
0 53 U A 0.000811
0 53 U C -0.000036
0 53 U U -0.000047
0 53 U G -0.000009
0 53 U - -0.000647
0 53 G A -0.011252
0 53 G C 0.000029
0 53 G U -0.002004
0 53 G G 0.003583
0 53 G - 0.000373
0 53 - A -0.000044
0 53 - C -0.000013
0 53 - U 0.000045
0 53 - G -0.000006
0 53 - - 0.000877
0 54 A A 0.000487
0 54 A C 0.000690
0 54 A U 0.000574
0 54 A G 0.001169
0 54 A - -0.013605
0 54 C A 0.000017
0 54 C C 0.000012
0 54 C U -0.000009
0 54 C G -0.000019
0 54 C - -0.000003
0 54 U A -0.000058
0 54 U C -0.000029
0 54 U U 0.000951
0 54 U G 0.000013
0 54 U - -0.000927
0 54 G A -0.001778
0 54 G C 0.001840
0 54 G U -0.001186
0 54 G G -0.000219
0 54 G - -0.000466
0 54 - A -0.000040
0 54 - C 0.000245
0 54 - U 0.000029
0 54 - G 0.000035
0 54 - - -0.000034
0 55 A A -0.000755
0 55 A C -0.000014
0 55 A U -0.000052
0 55 A G 0.001403
0 55 A - 0.000828
0 55 C A -0.000002
0 55 C C 0.000032
0 55 C U 0.000003
0 55 C G -0.000025
0 55 C - 0.005136
0 55 U A 0.000006
0 55 U C -0.000006
0 55 U U 0.000029
0 55 U G -0.000023
0 55 U - 0.000644
0 55 G A 0.000329
0 55 G C 0.000547
0 55 G U 0.001252
0 55 G G -0.000085
0 55 G - -0.009637
0 55 - A 0.000047
0 55 - C -0.000038
0 55 - U -0.000044
0 55 - G 0.000267
0 55 - - 0.000013
0 56 A A -0.000566
0 56 A C 0.000623
0 56 A U -0.000038
0 56 A G -0.000082
0 56 A - 0.002554
0 56 C A -0.000024
0 56 C C -0.000013
0 56 C U -0.000041
0 56 C G 0.000007
0 56 C - 0.004103
0 56 U A -0.000067
0 56 U C -0.000009
0 56 U U 0.000002
0 56 U G -0.000004
0 56 U - 0.000513
0 56 G A -0.001649
0 56 G C 0.003278
0 56 G U 0.000215
0 56 G G 0.001482
0 56 G - -0.006263
0 56 - A 0.000901
0 56 - C -0.000030
0 56 - U -0.000043
0 56 - G -0.000045
0 56 - - -0.000041
0 57 A A -0.000032
0 57 A C 0.000021
0 57 A U 0.000531
0 57 A G -0.000052
0 57 A - 0.002082
0 57 C A 0.000047
0 57 C C -0.000004
0 57 C U -0.000046
0 57 C G -0.000035
0 57 C - 0.004983
0 57 U A -0.000067
0 57 U C 0.000043
0 57 U U -0.000038
0 57 U G 0.000008
0 57 U - -0.001824
0 57 G A -0.000408
0 57 G C -0.000001
0 57 G U 0.000852
0 57 G G 0.001138
0 57 G - -0.002396
0 57 - A 0.000013
0 57 - C 0.000039
0 57 - U -0.000033
0 57 - G 0.000243
0 57 - - 0.002881
0 58 A A 0.000568
0 58 A C -0.000039
0 58 A U -0.000014
0 58 A G -0.000077
0 58 A - 0.001230
0 58 C A 0.000021
0 58 C C 0.000014
0 58 C U -0.000025
0 58 C G -0.000035
0 58 C - 0.005000
0 58 U A -0.000058
0 58 U C -0.000010
0 58 U U -0.000007
0 58 U G -0.000017
0 58 U - -0.000483
0 58 G A 0.000869
0 58 G C 0.000356
0 58 G U 0.001232
0 58 G G -0.000063
0 58 G - -0.022967
0 58 - A -0.000043
0 58 - C 0.000041
0 58 - U 0.000022
0 58 - G 0.000021
0 58 - - 0.005366
0 59 A A -0.000021
0 59 A C -0.000040
0 59 A U -0.000014
0 59 A G -0.000027
0 59 A - 0.000052
0 59 C A 0.000037
0 59 C C 0.000032
0 59 C U 0.000036
0 59 C G -0.000031
0 59 C - 0.005046
0 59 U A 0.000045
0 59 U C 0.000021
0 59 U U -0.000000
0 59 U G 0.000001
0 59 U - -0.005161
0 59 G A -0.000040
0 59 G C -0.000018
0 59 G U -0.000058
0 59 G G 0.000151
0 59 G - -0.006079
0 59 - A -0.000032
0 59 - C -0.000006
0 59 - U 0.000032
0 59 - G 0.000027
0 59 - - 0.002997
0 60 A A -0.000003
0 60 A C 0.000015
0 60 A U -0.000029
0 60 A G -0.000034
0 60 A - -0.001012
0 60 C A 0.000013
0 60 C C -0.000043
0 60 C U -0.000048
0 60 C G 0.000005
0 60 C - 0.017760
0 60 U A -0.000044
0 60 U C -0.000008
0 60 U U -0.000019
0 60 U G 0.000032
0 60 U - -0.005336
0 60 G A -0.000018
0 60 G C 0.000003
0 60 G U 0.000022
0 60 G G 0.000017
0 60 G - -0.023407
0 60 - A 0.000043
0 60 - C 0.000005
0 60 - U 0.000030
0 60 - G -0.000008
0 60 - - 0.007478
0 61 A A -0.000013
0 61 A C -0.000017
0 61 A U -0.000036
0 61 A G 0.000577
0 61 A - 0.000521
0 61 C A 0.000022
0 61 C C 0.000030
0 61 C U 0.000005
0 61 C G -0.000038
0 61 C - 0.006109
0 61 U A -0.000014
0 61 U C -0.000022
0 61 U U 0.000021
0 61 U G 0.000001
0 61 U - -0.003470
0 61 G A 0.000895
0 61 G C 0.000039
0 61 G U 0.000865
0 61 G G -0.000021
0 61 G - -0.015429
0 61 - A -0.000010
0 61 - C -0.000024
0 61 - U 0.000018
0 61 - G -0.000048
0 61 - - 0.002157
0 62 A A 0.000030
0 62 A C 0.001588
0 62 A U 0.000026
0 62 A G -0.000245
0 62 A - 0.000730
0 62 C A -0.000017
0 62 C C 0.000021
0 62 C U -0.000048
0 62 C G -0.000008
0 62 C - 0.005102
0 62 U A -0.000037
0 62 U C -0.000028
0 62 U U 0.000024
0 62 U G -0.000031
0 62 U - -0.001101
0 62 G A 0.000833
0 62 G C 0.000026
0 62 G U -0.000000
0 62 G G 0.000645
0 62 G - -0.036637
0 62 - A 0.000013
0 62 - C 0.000324
0 62 - U -0.000012
0 62 - G 0.000043
0 62 - - 0.003776
0 63 A A -0.000038
0 63 A C 0.000029
0 63 A U -0.000008
0 63 A G -0.001997
0 63 A - 0.002662
0 63 C A 0.000030
0 63 C C 0.000034
0 63 C U 0.000003
0 63 C G 0.000014
0 63 C - 0.005038
0 63 U A 0.000010
0 63 U C 0.000010
0 63 U U -0.000033
0 63 U G -0.000004
0 63 U - 0.000475
0 63 G A -0.000077
0 63 G C -0.000032
0 63 G U 0.000822
0 63 G G -0.000114
0 63 G - -0.016761
0 63 - A 0.000050
0 63 - C -0.000049
0 63 - U 0.000297
0 63 - G 0.000011
0 63 - - -0.000001
0 64 A A 0.000134
0 64 A C 0.000657
0 64 A U 0.001531
0 64 A G -0.001111
0 64 A - 0.000071
0 64 C A -0.000033
0 64 C C -0.000004
0 64 C U 0.000009
0 64 C G 0.000043
0 64 C - 0.004222
0 64 U A 0.000024
0 64 U C 0.000027
0 64 U U 0.000031
0 64 U G -0.000021
0 64 U - 0.000529
0 64 G A -0.000050
0 64 G C 0.000949
0 64 G U -0.000016
0 64 G G 0.000719
0 64 G - -0.030873
0 64 - A 0.000239
0 64 - C 0.000049
0 64 - U -0.000010
0 64 - G -0.000032
0 64 - - -0.000045
0 65 A A -0.000079
0 65 A C -0.000024
0 65 A U 0.000522
0 65 A G 0.000151
0 65 A - 0.000471
0 65 C A 0.000004
0 65 C C -0.000007
0 65 C U 0.000028
0 65 C G -0.000008
0 65 C - 0.002190
0 65 U A -0.000045
0 65 U C 0.000018
0 65 U U 0.000012
0 65 U G -0.000019
0 65 U - 0.001077
0 65 G A -0.000042
0 65 G C -0.000373
0 65 G U 0.000122
0 65 G G 0.000351
0 65 G - -0.079365
0 65 - A -0.000017
0 65 - C -0.000032
0 65 - U 0.000341