# NB_STEPS 3000
# UP_FREQ 1000
# TEMP 1.000000
# LAMBDA 0.050000
# ID_THRES 1.000000
# ALPHA 1.081221
0 0 A A 0.000644
0 0 C C -0.000469
0 0 U U -0.001403
0 0 G G 0.002039
0 0 - - 0.005442
0 1 A A 0.000032
0 1 A C -0.000025
0 1 A U -0.000667
0 1 A G 0.001716
0 1 A - 0.000678
0 1 C A -0.000009
0 1 C C -0.000725
0 1 C U 0.000521
0 1 C G -0.000086
0 1 C - 0.000022
0 1 U A -0.000014
0 1 U C -0.000126
0 1 U U -0.000105
0 1 U G -0.000051
0 1 U - -0.000046
0 1 G A -0.000018
0 1 G C 0.002143
0 1 G U 0.001042
0 1 G G -0.000377
0 1 G - -0.000003
0 1 - A 0.000011
0 1 - C 0.000006
0 1 - U -0.000036
0 1 - G 0.000031
0 1 - - -0.000031
0 2 A A 0.000032
0 2 A C 0.000140
0 2 A U 0.001015
0 2 A G 0.000645
0 2 A - -0.000030
0 2 C A -0.000017
0 2 C C -0.000342
0 2 C U -0.000544
0 2 C G 0.001538
0 2 C - 0.000014
0 2 U A -0.000015
0 2 U C -0.000064
0 2 U U -0.011769
0 2 U G 0.000001
0 2 U - 0.000001
0 2 G A -0.000057
0 2 G C 0.005405
0 2 G U 0.003509
0 2 G G -0.003272
0 2 G - 0.000772
0 2 - A 0.000008
0 2 - C 0.000008
0 2 - U -0.000015
0 2 - G -0.000033
0 2 - - -0.000035
0 3 A A 0.001350
0 3 A C 0.000020
0 3 A U -0.000031
0 3 A G -0.000054
0 3 A - 0.000788
0 3 C A 0.000697
0 3 C C 0.000728
0 3 C U -0.000279
0 3 C G -0.001107
0 3 C - 0.000731
0 3 U A -0.000037
0 3 U C -0.000017
0 3 U U 0.000226
0 3 U G -0.052061
0 3 U - 0.000037
0 3 G A 0.000031
0 3 G C 0.000521
0 3 G U 0.000245
0 3 G G 0.013943
0 3 G - 0.000005
0 3 - A -0.000010
0 3 - C -0.000029
0 3 - U 0.000020
0 3 - G -0.000033
0 3 - - -0.000049
0 4 A A 0.000022
0 4 A C 0.001541
0 4 A U 0.000225
0 4 A G 0.000007
0 4 A - -0.000044
0 4 C A 0.000687
0 4 C C -0.001533
0 4 C U -0.000212
0 4 C G 0.000304
0 4 C - 0.000040
0 4 U A -0.000006
0 4 U C -0.000744
0 4 U U -0.000855
0 4 U G 0.000028
0 4 U - 0.000462
0 4 G A -0.000037
0 4 G C 0.002111
0 4 G U -0.000888
0 4 G G 0.000343
0 4 G - 0.000017
0 4 - A -0.000050
0 4 - C 0.000030
0 4 - U 0.000031
0 4 - G -0.000006
0 4 - - 0.000011
0 5 A A -0.000067
0 5 A C 0.000028
0 5 A U 0.000019
0 5 A G 0.001846
0 5 A - 0.000005
0 5 C A -0.000018
0 5 C C -0.000045
0 5 C U 0.000009
0 5 C G -0.000256
0 5 C - -0.000042
0 5 U A -0.000040
0 5 U C -0.000044
0 5 U U 0.000016
0 5 U G -0.003110
0 5 U - 0.000050
0 5 G A -0.001805
0 5 G C -0.000047
0 5 G U 0.000390
0 5 G G -0.000302
0 5 G - 0.000038
0 5 - A 0.000044
0 5 - C 0.000046
0 5 - U -0.000029
0 5 - G -0.000036
0 5 - - -0.000011
0 6 A A 0.000047
0 6 A C -0.000029
0 6 A U 0.000534
0 6 A G 0.000988
0 6 A - -0.000041
0 6 C A 0.000023
0 6 C C 0.001735
0 6 C U -0.002031
0 6 C G 0.000014
0 6 C - -0.000001
0 6 U A -0.000014
0 6 U C -0.000821
0 6 U U -0.000345
0 6 U G 0.000052
0 6 U - 0.000049
0 6 G A 0.000369
0 6 G C 0.000512
0 6 G U 0.000284
0 6 G G -0.000026
0 6 G - 0.000049
0 6 - A 0.000049
0 6 - C -0.000045
0 6 - U 0.000025
0 6 - G 0.000008
0 6 - - 0.000034
0 7 A A -0.000013
0 7 A C -0.000005
0 7 A U 0.000033
0 7 A G 0.001431
0 7 A - 0.000033
0 7 C A -0.003592
0 7 C C -0.000038
0 7 C U 0.001759
0 7 C G -0.000637
0 7 C - -0.000044
0 7 U A -0.000274
0 7 U C 0.000013
0 7 U U 0.000001
0 7 U G 0.000069
0 7 U - -0.000031
0 7 G A 0.001543
0 7 G C -0.000036
0 7 G U -0.000051
0 7 G G -0.045649
0 7 G - -0.000032
0 7 - A -0.000040
0 7 - C 0.000035
0 7 - U 0.000001
0 7 - G 0.000009
0 7 - - -0.000047
0 8 A A -0.000059
0 8 A C 0.000029
0 8 A U 0.000030
0 8 A G 0.000022
0 8 A - -0.000048
0 8 C A -0.000578
0 8 C C 0.000037
0 8 C U -0.000001
0 8 C G -0.000018
0 8 C - 0.000013
0 8 U A -0.001363
0 8 U C 0.000006
0 8 U U -0.000031
0 8 U G 0.000014
0 8 U - 0.000003
0 8 G A 0.001769
0 8 G C -0.000027
0 8 G U 0.000010
0 8 G G -0.000041
0 8 G - -0.000015
0 8 - A 0.018650
0 8 - C 0.000022
0 8 - U 0.000032
0 8 - G -0.000048
0 8 - - 0.000022
0 9 A A 0.000022
0 9 A C -0.000384
0 9 A U 0.000710
0 9 A G 0.000004
0 9 A - -0.000004
0 9 C A -0.000002
0 9 C C -0.000548
0 9 C U 0.000021
0 9 C G 0.000034
0 9 C - 0.000007
0 9 U A 0.000036
0 9 U C -0.001472
0 9 U U 0.000001
0 9 U G -0.000045
0 9 U - -0.000002
0 9 G A 0.000011
0 9 G C 0.000875
0 9 G U -0.000008
0 9 G G 0.000044
0 9 G - -0.000039
0 9 - A -0.000038
0 9 - C 0.003932
0 9 - U 0.000015
0 9 - G 0.000033
0 9 - - -0.000016
0 10 A A -0.000023
0 10 A C -0.000025
0 10 A U 0.000345
0 10 A G 0.000046
0 10 A - 0.000008
0 10 C A -0.000022
0 10 C C 0.000153
0 10 C U -0.001307
0 10 C G -0.000001
0 10 C - 0.000008
0 10 U A 0.000046
0 10 U C 0.000050
0 10 U U -0.001509
0 10 U G 0.000045
0 10 U - -0.000048
0 10 G A -0.000000
0 10 G C 0.000493
0 10 G U 0.000731
0 10 G G -0.000042
0 10 G - -0.000041
0 10 - A 0.000029
0 10 - C -0.000007
0 10 - U 0.002835
0 10 - G 0.000008
0 10 - - 0.000008
0 11 A A -0.000010
0 11 A C -0.000021
0 11 A U -0.000010
0 11 A G 0.000127
0 11 A - 0.000007
0 11 C A -0.000009
0 11 C C -0.000017
0 11 C U -0.000007
0 11 C G -0.002085
0 11 C - -0.000006
0 11 U A 0.000013
0 11 U C -0.000049
0 11 U U -0.000020
0 11 U G -0.001460
0 11 U - -0.000038
0 11 G A 0.000049
0 11 G C -0.000025
0 11 G U 0.000007
0 11 G G 0.001202
0 11 G - -0.000017
0 11 - A 0.000031
0 11 - C 0.000007
0 11 - U -0.000010
0 11 - G 0.004840
0 11 - - 0.000015
0 12 A A 0.000948
0 12 A C -0.000000
0 12 A U 0.000040
0 12 A G -0.000196
0 12 A - 0.000821
0 12 C A -0.000079
0 12 C C 0.000050
0 12 C U -0.000045
0 12 C G -0.000197
0 12 C - -0.000031
0 12 U A 0.000011
0 12 U C -0.000036
0 12 U U 0.000039
0 12 U G -0.000895
0 12 U - 0.000047
0 12 G A 0.001664
0 12 G C 0.000024
0 12 G U 0.000009
0 12 G G -0.000759
0 12 G - -0.000007
0 12 - A -0.000044
0 12 - C -0.000005
0 12 - U 0.000046
0 12 - G -0.000024
0 12 - - 0.000035
0 13 A A -0.000005
0 13 A C 0.000292
0 13 A U 0.000026
0 13 A G 0.000045
0 13 A - 0.000039
0 13 C A 0.000022
0 13 C C -0.000618
0 13 C U 0.000019
0 13 C G 0.000002
0 13 C - 0.000042
0 13 U A -0.000023
0 13 U C -0.001417
0 13 U U 0.000049
0 13 U G -0.000039
0 13 U - 0.000035
0 13 G A 0.000010
0 13 G C 0.001198
0 13 G U 0.000003
0 13 G G -0.000035
0 13 G - -0.000047
0 13 - A -0.000022
0 13 - C 0.006233
0 13 - U -0.000022
0 13 - G -0.000004
0 13 - - -0.000008
0 14 A A 0.001038
0 14 A C 0.000003
0 14 A U 0.000004
0 14 A G -0.000710
0 14 A - 0.000030
0 14 C A -0.000015
0 14 C C -0.000008
0 14 C U 0.000044
0 14 C G -0.000679
0 14 C - -0.000005
0 14 U A 0.000024
0 14 U C -0.000005
0 14 U U 0.000045
0 14 U G -0.002408
0 14 U - 0.000032
0 14 G A 0.000047
0 14 G C -0.000007
0 14 G U 0.000031
0 14 G G 0.002049
0 14 G - -0.000003
0 14 - A -0.000015
0 14 - C 0.000007
0 14 - U 0.000043
0 14 - G 0.006349
0 14 - - 0.000043
0 15 A A 0.001670
0 15 A C -0.000002
0 15 A U -0.000052
0 15 A G -0.001042
0 15 A - 0.000042
0 15 C A -0.287438
0 15 C C 0.000270
0 15 C U 0.000720
0 15 C G 0.041951
0 15 C - -0.000017
0 15 U A -0.000147
0 15 U C -0.000066
0 15 U U -0.000051
0 15 U G -0.000169
0 15 U - 0.000016
0 15 G A 0.134513
0 15 G C -0.008710
0 15 G U 0.000630
0 15 G G 0.002775
0 15 G - -0.000036
0 15 - A -0.000022
0 15 - C 0.000019
0 15 - U -0.000040
0 15 - G -0.000007
0 15 - - 0.000017
0 16 A A 0.000119
0 16 A C -0.000010
0 16 A U -0.000033
0 16 A G 0.000579
0 16 A - -0.000044
0 16 C A 0.001671
0 16 C C -0.000122
0 16 C U -0.000411
0 16 C G -0.000001
0 16 C - 0.000014
0 16 U A -0.005900
0 16 U C 0.000015
0 16 U U -0.000003
0 16 U G -0.000041
0 16 U - 0.000024
0 16 G A -0.000343
0 16 G C 0.001493
0 16 G U 0.000377
0 16 G G -0.001287
0 16 G - 0.002330
0 16 - A -0.000026
0 16 - C -0.000033
0 16 - U 0.000036
0 16 - G 0.000006
0 16 - - -0.000015
0 17 A A 0.000042
0 17 A C 0.001760
0 17 A U -0.000055
0 17 A G -0.000068
0 17 A - 0.000015
0 17 C A -0.000889
0 17 C C 0.000023
0 17 C U 0.001456
0 17 C G -0.000295
0 17 C - 0.000011
0 17 U A -0.000305
0 17 U C -0.000064
0 17 U U -0.000005
0 17 U G 0.000000
0 17 U - 0.000037
0 17 G A 0.002394
0 17 G C -0.001102
0 17 G U 0.001557
0 17 G G -0.000435
0 17 G - -0.000046
0 17 - A 0.000001
0 17 - C 0.000042
0 17 - U -0.000004
0 17 - G -0.000028
0 17 - - -0.000029
0 18 A A 0.000488
0 18 A C -0.000014
0 18 A U -0.000046
0 18 A G -0.000034
0 18 A - 0.001431
0 18 C A -0.000239
0 18 C C 0.000490
0 18 C U -0.000053
0 18 C G -0.000171
0 18 C - 0.000584
0 18 U A -0.000542
0 18 U C 0.000045
0 18 U U -0.000005
0 18 U G -0.000014
0 18 U - -0.000039
0 18 G A -0.000128
0 18 G C 0.001068
0 18 G U -0.000484
0 18 G G 0.000393
0 18 G - 0.001984
0 18 - A -0.000049
0 18 - C 0.000015
0 18 - U -0.000024
0 18 - G -0.000027
0 18 - - -0.000013
0 19 A A 0.000031
0 19 A C -0.000057
0 19 A U 0.000034
0 19 A G 0.000744
0 19 A - 0.000733
0 19 C A -0.000060
0 19 C C 0.000223
0 19 C U -0.000038
0 19 C G 0.001442
0 19 C - -0.000296
0 19 U A -0.000042
0 19 U C 0.000016
0 19 U U -0.000016
0 19 U G 0.000588
0 19 U - -0.000417
0 19 G A 0.002246
0 19 G C 0.000003
0 19 G U 0.000025
0 19 G G -0.000199
0 19 G - 0.001273
0 19 - A -0.000010
0 19 - C -0.000023
0 19 - U 0.000025
0 19 - G 0.000045
0 19 - - -0.000047
0 20 A A -0.000002
0 20 A C 0.000037
0 20 A U 0.000005
0 20 A G 0.001309
0 20 A - 0.000016
0 20 C A 0.001607
0 20 C C 0.000448
0 20 C U -0.000011
0 20 C G -0.004864
0 20 C - -0.000002
0 20 U A -0.000047
0 20 U C 0.000032
0 20 U U 0.000012
0 20 U G -0.000674
0 20 U - -0.000004
0 20 G A -0.000067
0 20 G C 0.000033
0 20 G U 0.001293
0 20 G G 0.000335
0 20 G - 0.000005
0 20 - A 0.000003
0 20 - C -0.000009
0 20 - U -0.000003
0 20 - G 0.000010
0 20 - - 0.000000
0 21 A A -0.000029
0 21 A C -0.000001
0 21 A U -0.001675
0 21 A G 0.000165
0 21 A - -0.000001
0 21 C A 0.000720
0 21 C C -0.000030
0 21 C U -0.002767
0 21 C G 0.000810
0 21 C - 0.000011
0 21 U A -0.000031
0 21 U C -0.000060
0 21 U U -0.000704
0 21 U G 0.000004
0 21 U - -0.000002
0 21 G A -0.000046
0 21 G C -0.000043
0 21 G U 0.001380
0 21 G G 0.000106
0 21 G - -0.000046
0 21 - A -0.000001
0 21 - C 0.000034
0 21 - U 0.002599
0 21 - G -0.000025
0 21 - - 0.000045
0 22 A A 0.000975
0 22 A C 0.000030
0 22 A U 0.000800
0 22 A G -0.002063
0 22 A - 0.000754
0 22 C A 0.000173
0 22 C C -0.000004
0 22 C U 0.000014
0 22 C G -0.001709
0 22 C - -0.000017
0 22 U A -0.000043
0 22 U C -0.000023
0 22 U U -0.000024
0 22 U G -0.001179
0 22 U - -0.000035
0 22 G A -0.000045
0 22 G C 0.000674
0 22 G U 0.000049
0 22 G G -0.000381
0 22 G - 0.000905
0 22 - A -0.000042
0 22 - C -0.000042
0 22 - U 0.000041
0 22 - G 0.004231
0 22 - - 0.000046
0 23 A A -0.000050
0 23 A C -0.000022
0 23 A U -0.000011
0 23 A G 0.000632
0 23 A - 0.000025
0 23 C A -0.000021
0 23 C C 0.000011
0 23 C U -0.000032
0 23 C G -0.000508
0 23 C - -0.000018
0 23 U A -0.000024
0 23 U C -0.000015
0 23 U U -0.000009
0 23 U G -0.002399
0 23 U - 0.000485
0 23 G A -0.000045
0 23 G C 0.000044
0 23 G U 0.000037
0 23 G G 0.002280
0 23 G - -0.000008
0 23 - A 0.000028
0 23 - C -0.000031
0 23 - U 0.000028
0 23 - G 0.006106
0 23 - - 0.000025
0 24 A A 0.000406
0 24 A C -0.000039
0 24 A U -0.000032
0 24 A G 0.000988
0 24 A - -0.000000
0 24 C A 0.000818
0 24 C C 0.000025
0 24 C U 0.000006
0 24 C G -0.002248
0 24 C - -0.000016
0 24 U A -0.000938
0 24 U C 0.000002
0 24 U U -0.000034
0 24 U G -0.000099
0 24 U - 0.000013
0 24 G A -0.000588
0 24 G C 0.002253
0 24 G U -0.000019
0 24 G G 0.001545
0 24 G - -0.000010
0 24 - A -0.000039
0 24 - C 0.000022
0 24 - U -0.000001
0 24 - G -0.000003
0 24 - - 0.000018
0 25 A A -0.000283
0 25 A C -0.000004
0 25 A U 0.001650
0 25 A G 0.000453
0 25 A - -0.000001
0 25 C A 0.001161
0 25 C C 0.000476
0 25 C U -0.000239
0 25 C G -0.000341
0 25 C - 0.000043
0 25 U A 0.000274
0 25 U C -0.000053
0 25 U U -0.000255
0 25 U G -0.000165
0 25 U - -0.000036
0 25 G A -0.006283
0 25 G C 0.002007
0 25 G U -0.000349
0 25 G G 0.002067
0 25 G - 0.000913
0 25 - A 0.000039
0 25 - C -0.000044
0 25 - U 0.000034
0 25 - G 0.000009
0 25 - - -0.000032
0 26 A A 0.001027
0 26 A C 0.001517
0 26 A U -0.000233
0 26 A G -0.000020
0 26 A - 0.000007
0 26 C A 0.003074
0 26 C C -0.004312
0 26 C U -0.000072
0 26 C G 0.000015
0 26 C - 0.000032
0 26 U A -0.000207
0 26 U C 0.000213
0 26 U U -0.000057
0 26 U G -0.000016
0 26 U - 0.000004
0 26 G A -0.000312
0 26 G C -0.000944
0 26 G U 0.000520
0 26 G G 0.002120
0 26 G - 0.000906
0 26 - A -0.000043
0 26 - C -0.000043
0 26 - U 0.000005
0 26 - G 0.000042
0 26 - - 0.000006
0 27 A A -0.001238
0 27 A C 0.000788
0 27 A U -0.000004
0 27 A G -0.000024
0 27 A - 0.000028
0 27 C A 0.000758
0 27 C C -0.001692
0 27 C U 0.000015
0 27 C G -0.000010
0 27 C - -0.000048
0 27 U A -0.003873
0 27 U C -0.000003
0 27 U U 0.000020
0 27 U G -0.000004
0 27 U - -0.000050
0 27 G A -0.000243
0 27 G C 0.000842
0 27 G U -0.000027
0 27 G G -0.000004
0 27 G - 0.000560
0 27 - A 0.000136
0 27 - C -0.000050
0 27 - U 0.000038
0 27 - G -0.000041
0 27 - - 0.000003
0 28 A A -0.000010
0 28 A C 0.000612
0 28 A U 0.000004
0 28 A G 0.000038
0 28 A - 0.000042
0 28 C A 0.000012
0 28 C C -0.000871
0 28 C U 0.000037
0 28 C G 0.000039
0 28 C - 0.000046
0 28 U A -0.000041
0 28 U C -0.001449
0 28 U U -0.000021
0 28 U G 0.000012
0 28 U - -0.000027
0 28 G A 0.000012
0 28 G C 0.001590
0 28 G U 0.000006
0 28 G G 0.000008
0 28 G - -0.000018
0 28 - A 0.000042
0 28 - C 0.006112
0 28 - U -0.000026
0 28 - G -0.000008
0 28 - - 0.000042
0 29 A A 0.000018
0 29 A C 0.000773
0 29 A U -0.000036
0 29 A G 0.000038
0 29 A - 0.000005
0 29 C A -0.000040
0 29 C C -0.000378
0 29 C U 0.000046
0 29 C G 0.000048
0 29 C - -0.000039
0 29 U A 0.000004
0 29 U C -0.001538
0 29 U U 0.000384
0 29 U G 0.000037
0 29 U - -0.000017
0 29 G A 0.000002
0 29 G C 0.000718
0 29 G U -0.000060
0 29 G G 0.000374
0 29 G - 0.000018
0 29 - A -0.000042
0 29 - C 0.004035
0 29 - U -0.000017
0 29 - G -0.000017
0 29 - - -0.000021
0 30 A A -0.001630
0 30 A C -0.000007
0 30 A U 0.000025
0 30 A G -0.000051
0 30 A - 0.000034
0 30 C A -0.000502
0 30 C C 0.000035
0 30 C U 0.000041
0 30 C G 0.000039
0 30 C - 0.000042
0 30 U A -0.000722
0 30 U C -0.000036
0 30 U U 0.000005
0 30 U G -0.000069
0 30 U - 0.000042
0 30 G A 0.002453
0 30 G C -0.000007
0 30 G U -0.000053
0 30 G G 0.000029
0 30 G - 0.000039
0 30 - A 0.002623
0 30 - C -0.000008
0 30 - U 0.000031
0 30 - G 0.000035
0 30 - - 0.000029
0 31 A A -0.000020
0 31 A C 0.001165
0 31 A U 0.000014
0 31 A G -0.000001
0 31 A - 0.000003
0 31 C A 0.000028
0 31 C C -0.003897
0 31 C U 0.001660
0 31 C G 0.000015
0 31 C - -0.000004
0 31 U A 0.000023
0 31 U C -0.000492
0 31 U U -0.000057
0 31 U G -0.000045
0 31 U - -0.000050
0 31 G A 0.000492
0 31 G C 0.000658
0 31 G U 0.000442
0 31 G G 0.000011
0 31 G - -0.000003
0 31 - A -0.000020
0 31 - C -0.000043
0 31 - U 0.000049
0 31 - G -0.000021
0 31 - - 0.000033
0 32 A A -0.000070
0 32 A C 0.000664
0 32 A U 0.000983
0 32 A G -0.000013
0 32 A - 0.000215
0 32 C A -0.000041
0 32 C C -0.006324
0 32 C U -0.000032
0 32 C G -0.000067
0 32 C - 0.000792
0 32 U A 0.000006
0 32 U C -0.000361
0 32 U U -0.000002
0 32 U G -0.000144
0 32 U - 0.000278
0 32 G A 0.000851
0 32 G C 0.001071
0 32 G U 0.000023
0 32 G G 0.000305
0 32 G - -0.000372
0 32 - A -0.000049
0 32 - C 0.000004
0 32 - U -0.000045
0 32 - G -0.000038
0 32 - - -0.000018
0 33 A A -0.000213
0 33 A C -0.000000
0 33 A U -0.000038
0 33 A G 0.001733
0 33 A - 0.000005
0 33 C A -0.000210
0 33 C C 0.000049
0 33 C U 0.000000
0 33 C G 0.000069
0 33 C - 0.000027
0 33 U A -0.000584
0 33 U C 0.000018
0 33 U U -0.000002
0 33 U G -0.000435
0 33 U - 0.000022
0 33 G A 0.001816
0 33 G C -0.000026
0 33 G U -0.000001
0 33 G G -0.000437
0 33 G - 0.000588
0 33 - A 0.000050
0 33 - C 0.000013
0 33 - U 0.000019
0 33 - G -0.000002
0 33 - - -0.000044
0 34 A A -0.000004
0 34 A C -0.000026
0 34 A U 0.000653
0 34 A G 0.000530
0 34 A - -0.000028
0 34 C A -0.000024
0 34 C C 0.000827
0 34 C U -0.004545
0 34 C G 0.000265
0 34 C - 0.000007
0 34 U A 0.000021
0 34 U C -0.000044
0 34 U U -0.000058
0 34 U G -0.008308
0 34 U - 0.000021
0 34 G A 0.000890
0 34 G C -0.000047
0 34 G U 0.003043
0 34 G G -0.001394
0 34 G - -0.000016
0 34 - A -0.000028
0 34 - C -0.000014
0 34 - U 0.000019
0 34 - G 0.000011
0 34 - - -0.000034
0 35 A A 0.000730
0 35 A C -0.000033
0 35 A U -0.000029
0 35 A G -0.000349
0 35 A - -0.000044
0 35 C A -0.000002
0 35 C C 0.000015
0 35 C U -0.000004
0 35 C G -0.000503
0 35 C - 0.000048
0 35 U A -0.000050
0 35 U C -0.000017
0 35 U U -0.000001
0 35 U G -0.001869
0 35 U - 0.000012
0 35 G A -0.000036
0 35 G C -0.000002
0 35 G U 0.000027
0 35 G G 0.001650
0 35 G - -0.000002
0 35 - A 0.000044
0 35 - C -0.000013
0 35 - U 0.000021
0 35 - G 0.003463
0 35 - - 0.000021
0 36 A A 0.000514
0 36 A C 0.000047
0 36 A U -0.000016
0 36 A G 0.000440
0 36 A - -0.000037
0 36 C A -0.000739
0 36 C C -0.000032
0 36 C U -0.000039
0 36 C G -0.000167
0 36 C - 0.000013
0 36 U A -0.000082
0 36 U C -0.000007
0 36 U U 0.000039
0 36 U G -0.008714
0 36 U - -0.000036
0 36 G A 0.000024
0 36 G C 0.000903
0 36 G U 0.000257
0 36 G G 0.000013
0 36 G - 0.000040
0 36 - A 0.000014
0 36 - C 0.000026
0 36 - U -0.000031
0 36 - G 0.000021
0 36 - - 0.000021
0 37 A A 0.000330
0 37 A C 0.000042
0 37 A U -0.000045
0 37 A G -0.000012
0 37 A - 0.000020
0 37 C A -0.000998
0 37 C C -0.000016
0 37 C U 0.000029
0 37 C G 0.000014
0 37 C - -0.000044
0 37 U A -0.003010
0 37 U C -0.000030
0 37 U U -0.000036
0 37 U G 0.000016
0 37 U - 0.000030
0 37 G A 0.001718
0 37 G C -0.000027
0 37 G U 0.000028
0 37 G G -0.000047
0 37 G - 0.000018
0 37 - A 0.004775
0 37 - C 0.000028
0 37 - U 0.000027
0 37 - G 0.000033
0 37 - - -0.000005
0 38 A A -0.000012
0 38 A C 0.001024
0 38 A U 0.000028
0 38 A G -0.000147
0 38 A - -0.000008
0 38 C A -0.000039
0 38 C C -0.000017
0 38 C U -0.000003
0 38 C G -0.000197
0 38 C - 0.000006
0 38 U A 0.000000
0 38 U C 0.000035
0 38 U U -0.000013
0 38 U G -0.000923
0 38 U - 0.000006
0 38 G A 0.000062
0 38 G C -0.000059
0 38 G U -0.000014
0 38 G G 0.000294
0 38 G - 0.000546
0 38 - A -0.000041
0 38 - C -0.000003
0 38 - U -0.000001
0 38 - G -0.000049
0 38 - - -0.000015
0 39 A A -0.000011
0 39 A C 0.000891
0 39 A U 0.000901
0 39 A G -0.000024
0 39 A - 0.000045
0 39 C A -0.000005
0 39 C C -0.000313
0 39 C U -0.000042
0 39 C G -0.000006
0 39 C - -0.000021
0 39 U A -0.000038
0 39 U C -0.007819
0 39 U U -0.000047
0 39 U G -0.000050
0 39 U - -0.000020
0 39 G A -0.000043
0 39 G C -0.000841
0 39 G U 0.001139
0 39 G G 0.000015
0 39 G - -0.000004
0 39 - A 0.000044
0 39 - C -0.000004
0 39 - U 0.000011
0 39 - G -0.000044
0 39 - - -0.000004
0 40 A A 0.000405
0 40 A C 0.000014
0 40 A U -0.000026
0 40 A G 0.001399
0 40 A - -0.000001
0 40 C A -0.000285
0 40 C C 0.000358
0 40 C U 0.000778
0 40 C G -0.001004
0 40 C - 0.000046
0 40 U A -0.000166
0 40 U C 0.000009
0 40 U U 0.000029
0 40 U G -0.000823
0 40 U - 0.000037
0 40 G A -0.001133
0 40 G C 0.000289
0 40 G U -0.000005
0 40 G G 0.001975
0 40 G - 0.000231
0 40 - A 0.000042
0 40 - C -0.000018
0 40 - U -0.000004
0 40 - G 0.000041
0 40 - - 0.000048
0 41 A A 0.000013
0 41 A C 0.000702
0 41 A U 0.001320
0 41 A G -0.000034
0 41 A - 0.000037
0 41 C A 0.000495
0 41 C C -0.001305
0 41 C U 0.000518
0 41 C G 0.000723
0 41 C - 0.000048
0 41 U A 0.000235
0 41 U C -0.057837
0 41 U U -0.000064
0 41 U G -0.000051
0 41 U - 0.000001
0 41 G A 0.000035
0 41 G C 0.006235
0 41 G U 0.000503
0 41 G G -0.000969
0 41 G - 0.000916
0 41 - A 0.000023
0 41 - C 0.000020
0 41 - U 0.000042
0 41 - G 0.000014
0 41 - - -0.000019
0 42 A A -0.000003
0 42 A C 0.000682
0 42 A U 0.000004
0 42 A G 0.001019
0 42 A - -0.000021
0 42 C A -0.000232
0 42 C C 0.001169
0 42 C U -0.000010
0 42 C G -0.000761
0 42 C - 0.000030
0 42 U A -0.005980
0 42 U C 0.000015
0 42 U U 0.000027
0 42 U G -0.000151
0 42 U - 0.000040
0 42 G A -0.000101
0 42 G C -0.001321
0 42 G U 0.000553
0 42 G G 0.003634
0 42 G - 0.000592
0 42 - A 0.000014
0 42 - C -0.000008
0 42 - U 0.000013
0 42 - G 0.000007
0 42 - - -0.000012
0 43 A A -0.000455
0 43 A C 0.001766
0 43 A U -0.000010
0 43 A G 0.000008
0 43 A - 0.000719
0 43 C A -0.000169
0 43 C C -0.000088
0 43 C U 0.000031
0 43 C G 0.000237
0 43 C - -0.000036
0 43 U A -0.000124
0 43 U C -0.000047
0 43 U U -0.000042
0 43 U G -0.000280
0 43 U - 0.000035
0 43 G A 0.000437
0 43 G C -0.000946
0 43 G U -0.000030
0 43 G G 0.005769
0 43 G - 0.000043
0 43 - A -0.000015
0 43 - C 0.000029
0 43 - U 0.000035
0 43 - G -0.000016
0 43 - - 0.000014
0 44 A A 0.000736
0 44 A C 0.000992
0 44 A U -0.006875
0 44 A G -0.000051
0 44 A - 0.000025
0 44 C A -0.000045
0 44 C C 0.000502
0 44 C U 0.000009
0 44 C G -0.000668
0 44 C - 0.000045
0 44 U A -0.084995
0 44 U C -0.000006
0 44 U U 0.000827
0 44 U G 0.000170
0 44 U - 0.000044
0 44 G A -0.000027
0 44 G C 0.081514
0 44 G U -0.000526
0 44 G G -0.000065
0 44 G - 0.000005
0 44 - A -0.000025
0 44 - C -0.000001
0 44 - U -0.000020
0 44 - G 0.000038
0 44 - - -0.000032
0 45 A A 0.000326
0 45 A C -0.000022
0 45 A U 0.000976
0 45 A G 0.000678
0 45 A - 0.000049
0 45 C A 0.000774
0 45 C C -0.000008
0 45 C U -0.021012
0 45 C G 0.006077
0 45 C - 0.001267
0 45 U A -0.000115
0 45 U C -0.000056
0 45 U U -0.000045
0 45 U G 0.000533
0 45 U - 0.000047
0 45 G A 0.000147
0 45 G C -0.000242
0 45 G U 0.001180
0 45 G G -0.000650
0 45 G - 0.002041
0 45 - A 0.000036
0 45 - C 0.000016
0 45 - U 0.000005
0 45 - G 0.000003
0 45 - - -0.000004
0 46 A A 0.001384
0 46 A C 0.000963
0 46 A U -0.000079
0 46 A G 0.000019
0 46 A - -0.000000
0 46 C A -0.000094
0 46 C C -0.000021
0 46 C U 0.001033
0 46 C G -0.001161
0 46 C - -0.000003
0 46 U A -0.006988
0 46 U C 0.000132
0 46 U U -0.000071
0 46 U G -0.000080
0 46 U - 0.000011
0 46 G A 0.000523
0 46 G C -0.000122
0 46 G U -0.001092
0 46 G G 0.003057
0 46 G - 0.000035
0 46 - A -0.000029
0 46 - C -0.000035
0 46 - U 0.000024
0 46 - G -0.000031
0 46 - - -0.000035
0 47 A A 0.000968
0 47 A C 0.000029
0 47 A U 0.000029
0 47 A G 0.000055
0 47 A - -0.000000
0 47 C A -0.000004
0 47 C C 0.001060
0 47 C U -0.000012
0 47 C G -0.003934
0 47 C - 0.000004
0 47 U A 0.000009
0 47 U C -0.000030
0 47 U U 0.000012
0 47 U G -0.005229
0 47 U - 0.000042
0 47 G A -0.000060
0 47 G C -0.000046
0 47 G U -0.000025
0 47 G G 0.002813
0 47 G - -0.000009
0 47 - A -0.000000
0 47 - C -0.000001
0 47 - U -0.000021
0 47 - G 0.005149
0 47 - - -0.000017
0 48 A A -0.000023
0 48 A C 0.000857
0 48 A U -0.000007
0 48 A G -0.000009
0 48 A - 0.000043
0 48 C A -0.000003
0 48 C C -0.001483
0 48 C U 0.000010
0 48 C G -0.000025
0 48 C - -0.000016
0 48 U A 0.000023
0 48 U C -0.002296
0 48 U U -0.000055
0 48 U G 0.000006
0 48 U - -0.000005
0 48 G A 0.000887
0 48 G C -0.000351
0 48 G U 0.000929
0 48 G G -0.000009
0 48 G - -0.000043
0 48 - A 0.000040
0 48 - C 0.000034
0 48 - U -0.000021
0 48 - G -0.000024
0 48 - - 0.000037
0 49 A A 0.000035
0 49 A C 0.000664
0 49 A U 0.000029
0 49 A G -0.000024
0 49 A - 0.000030
0 49 C A 0.000025
0 49 C C -0.000492
0 49 C U -0.000035
0 49 C G 0.000014
0 49 C - 0.000045
0 49 U A 0.000018
0 49 U C -0.001335
0 49 U U 0.000003
0 49 U G 0.000045
0 49 U - 0.000045
0 49 G A -0.000041
0 49 G C 0.000455
0 49 G U -0.000043
0 49 G G 0.000524
0 49 G - 0.000003
0 49 - A -0.000029
0 49 - C 0.010748
0 49 - U -0.000029
0 49 - G -0.000029
0 49 - - 0.000013
0 50 A A -0.000024
0 50 A C -0.000006
0 50 A U -0.000024
0 50 A G 0.000353
0 50 A - 0.000021
0 50 C A 0.000008
0 50 C C 0.000028
0 50 C U 0.000021
0 50 C G -0.000510
0 50 C - 0.000017
0 50 U A 0.000032
0 50 U C -0.000003
0 50 U U -0.000007
0 50 U G -0.001493
0 50 U - 0.000017
0 50 G A 0.000036
0 50 G C 0.000943
0 50 G U -0.000047
0 50 G G 0.000278
0 50 G - 0.000004
0 50 - A -0.000024
0 50 - C -0.000018
0 50 - U -0.000024
0 50 - G 0.006215
0 50 - - -0.000024
0 51 A A -0.033562
0 51 A C 0.000573
0 51 A U -0.000064
0 51 A G 0.000001
0 51 A - 0.000039
0 51 C A -0.000074
0 51 C C 0.001320
0 51 C U -0.000526
0 51 C G 0.000006
0 51 C - -0.000047
0 51 U A -0.000163
0 51 U C 0.000071
0 51 U U -0.000568
0 51 U G -0.000033
0 51 U - -0.000031
0 51 G A 0.001319
0 51 G C 0.005707
0 51 G U -0.002104
0 51 G G 0.000009
0 51 G - -0.000042
0 51 - A 0.000039
0 51 - C 0.000014
0 51 - U 0.000018
0 51 - G -0.000031
0 51 - - -0.000032
0 52 A A -0.000033
0 52 A C -0.005000
0 52 A U 0.001655
0 52 A G -0.000049
0 52 A - 0.000009
0 52 C A -0.000047
0 52 C C 0.030117
0 52 C U -0.003630
0 52 C G 0.000009
0 52 C - 0.000080
0 52 U A -0.000074
0 52 U C -0.000144
0 52 U U -0.000153
0 52 U G 0.000016
0 52 U - -0.000014
0 52 G A -0.000012
0 52 G C 0.004233
0 52 G U 0.023067
0 52 G G -0.048405
0 52 G - -0.000005
0 52 - A 0.000014
0 52 - C 0.000013
0 52 - U 0.000021
0 52 - G -0.000025
0 52 - - -0.000001
0 53 A A 0.000030
0 53 A C 0.000645
0 53 A U 0.000011
0 53 A G 0.000005
0 53 A - -0.000049
0 53 C A -0.000003
0 53 C C -0.000540
0 53 C U 0.000047
0 53 C G 0.000037
0 53 C - -0.000016
0 53 U A 0.000049
0 53 U C -0.001494
0 53 U U -0.000039
0 53 U G 0.000009
0 53 U - -0.000003
0 53 G A 0.000043
0 53 G C 0.001552
0 53 G U 0.000003
0 53 G G -0.000043
0 53 G - -0.000002
0 53 - A -0.000003
0 53 - C 0.004396
0 53 - U 0.000026
0 53 - G 0.000026
0 53 - - 0.000018
0 54 A A 0.000049
0 54 A C 0.000043
0 54 A U 0.000044
0 54 A G 0.000676
0 54 A - 0.000049
0 54 C A 0.000022
0 54 C C -0.000006
0 54 C U -0.000041
0 54 C G -0.000539
0 54 C - 0.000014
0 54 U A 0.000027
0 54 U C -0.000007
0 54 U U -0.000011
0 54 U G -0.001446
0 54 U - 0.000043
0 54 G A -0.000021
0 54 G C -0.000013
0 54 G U -0.000024
0 54 G G 0.001336
0 54 G - 0.000023
0 54 - A 0.000043
0 54 - C 0.000049
0 54 - U -0.000043
0 54 - G 0.004262
0 54 - - 0.000044
0 55 A A -0.000016
0 55 A C 0.000367
0 55 A U 0.000987
0 55 A G 0.000036
0 55 A - -0.000040
0 55 C A 0.000038
0 55 C C -0.000890
0 55 C U -0.000057
0 55 C G 0.000016
0 55 C - 0.000021
0 55 U A 0.000046
0 55 U C -0.000214
0 55 U U -0.000049
0 55 U G 0.000006
0 55 U - 0.000047
0 55 G A 0.000007
0 55 G C -0.000779
0 55 G U 0.002326
0 55 G G 0.000046
0 55 G - 0.000608
0 55 - A 0.000042
0 55 - C -0.000036
0 55 - U -0.000042
0 55 - G -0.000014
0 55 - - -0.000043
0 56 A A -0.000042
0 56 A C 0.000246
0 56 A U 0.000040
0 56 A G -0.000022
0 56 A - 0.000018
0 56 C A -0.000010
0 56 C C -0.001042
0 56 C U 0.000081
0 56 C G -0.000043
0 56 C - 0.000041
0 56 U A 0.000021
0 56 U C -0.001425
0 56 U U -0.000042
0 56 U G 0.000015
0 56 U - 0.000037
0 56 G A 0.000038
0 56 G C 0.001341
0 56 G U -0.000005
0 56 G G -0.000017
0 56 G - 0.000008
0 56 - A -0.000015
0 56 - C 0.005928
0 56 - U 0.000013
0 56 - G -0.000015
0 56 - - 0.000013
0 57 A A 0.000039
0 57 A C -0.000017
0 57 A U 0.000629
0 57 A G -0.000007
0 57 A - -0.000001
0 57 C A -0.000016
0 57 C C -0.000004
0 57 C U -0.000491
0 57 C G -0.000037
0 57 C - 0.000041
0 57 U A -0.000004
0 57 U C -0.000042
0 57 U U -0.002294
0 57 U G 0.000492
0 57 U - -0.000017
0 57 G A 0.000037
0 57 G C -0.000008
0 57 G U 0.001327
0 57 G G -0.000018
0 57 G - -0.000049
0 57 - A -0.000034
0 57 - C 0.000041
0 57 - U 0.004601
0 57 - G -0.000050
0 57 - - 0.000046
0 58 A A 0.000040
0 58 A C -0.000042
0 58 A U 0.000015
0 58 A G 0.000694
0 58 A - 0.000027
0 58 C A 0.000043
0 58 C C -0.000003
0 58 C U 0.000002
0 58 C G -0.000459
0 58 C - -0.000015
0 58 U A -0.000023
0 58 U C -0.000027
0 58 U U 0.000049
0 58 U G -0.001531
0 58 U - 0.000031
0 58 G A -0.000019
0 58 G C 0.000900
0 58 G U 0.000007
0 58 G G 0.000505
0 58 G - 0.000013
0 58 - A 0.000025
0 58 - C 0.000018
0 58 - U -0.000007
0 58 - G 0.005779
0 58 - - 0.000009
0 59 A A -0.000037
0 59 A C 0.000023
0 59 A U -0.000021
0 59 A G 0.000082
0 59 A - 0.000034
0 59 C A 0.000023
0 59 C C -0.000016
0 59 C U -0.000021
0 59 C G -0.000476
0 59 C - 0.000048
0 59 U A 0.000034
0 59 U C -0.000033
0 59 U U -0.000034
0 59 U G -0.001957
0 59 U - 0.000034
0 59 G A -0.000015
0 59 G C -0.000043
0 59 G U -0.000015
0 59 G G 0.001470
0 59 G - 0.000034
0 59 - A 0.000047
0 59 - C -0.000050
0 59 - U 0.000034
0 59 - G 0.006100
0 59 - - 0.000034
0 60 A A -0.000046
0 60 A C -0.000010
0 60 A U 0.000012
0 60 A G 0.000679
0 60 A - 0.000014
0 60 C A 0.000031
0 60 C C 0.000000
0 60 C U -0.000038
0 60 C G -0.002834
0 60 C - 0.000014
0 60 U A -0.000035
0 60 U C 0.000045
0 60 U U 0.000012
0 60 U G -0.001493
0 60 U - 0.000014
0 60 G A -0.000014
0 60 G C 0.000013
0 60 G U 0.000020
0 60 G G 0.002187
0 60 G - -0.000037
0 60 - A 0.000041
0 60 - C 0.000014
0 60 - U -0.000050
0 60 - G 0.003938
0 60 - - 0.000048
0 61 A A -0.000037
0 61 A C 0.000251
0 61 A U -0.000015
0 61 A G -0.000004
0 61 A - 0.000702
0 61 C A 0.000018
0 61 C C -0.000265
0 61 C U 0.000021
0 61 C G -0.000022
0 61 C - -0.000042
0 61 U A 0.000024
0 61 U C -0.001657
0 61 U U 0.000289
0 61 U G 0.000021
0 61 U - 0.000016
0 61 G A 0.000641
0 61 G C 0.000815
0 61 G U -0.000072
0 61 G G -0.000003
0 61 G - -0.000012
0 61 - A -0.000035
0 61 - C 0.004189
0 61 - U 0.000016
0 61 - G -0.000020
0 61 - - -0.000038
0 62 A A 0.000535
0 62 A C -0.000034
0 62 A U 0.001041
0 62 A G 0.000013
0 62 A - 0.000000
0 62 C A -0.002500
0 62 C C -0.000055
0 62 C U 0.000016
0 62 C G -0.000013
0 62 C - 0.000804
0 62 U A -0.005017
0 62 U C 0.000016
0 62 U U 0.000021
0 62 U G 0.000283
0 62 U - 0.000121
0 62 G A 0.009886
0 62 G C -0.003738
0 62 G U 0.000060
0 62 G G -0.001347
0 62 G - -0.000009
0 62 - A -0.000039
0 62 - C 0.000013
0 62 - U 0.000016
0 62 - G -0.000027
0 62 - - -0.000007
0 63 A A 0.000507
0 63 A C -0.000021
0 63 A U 0.000587
0 63 A G 0.000014
0 63 A - 0.001049
0 63 C A -0.000187
0 63 C C -0.000047
0 63 C U -0.000050
0 63 C G -0.001701
0 63 C - 0.000860
0 63 U A -0.000133
0 63 U C 0.000047
0 63 U U -0.000014
0 63 U G -0.000248
0 63 U - -0.000014
0 63 G A -0.000655
0 63 G C 0.001472
0 63 G U 0.001677
0 63 G G -0.000267
0 63 G - -0.000040
0 63 - A 0.000046
0 63 - C 0.000002
0 63 - U -0.000042
0 63 - G 0.000017
0 63 - - 0.000024
1 1 A A -0.000604
1 1 C C -0.001279
1 1 U U -0.003240
1 1 G G 0.001286
1 1 - - 0.001014
1 2 A A -0.000012
1 2 A C 0.000001
1 2 A U -0.000012
1 2 A G 0.000019
1 2 A - 0.000056
1 2 C A -0.000019
1 2 C C 0.002325
1 2 C U 0.000083
1 2 C G -0.000244
1 2 C - -0.000011
1 2 U A 0.000049
1 2 U C -0.234997
1 2 U U -0.000103
1 2 U G 0.003025
1 2 U - 0.000667
1 2 G A 0.000039
1 2 G C 0.005484
1 2 G U 0.000880
1 2 G G -0.001511
1 2 G - 0.000029
1 2 - A 0.000045
1 2 - C 0.000737
1 2 - U 0.000002
1 2 - G 0.000384
1 2 - - -0.000009
1 3 A A -0.000002
1 3 A C -0.000027
1 3 A U -0.000039
1 3 A G -0.000080
1 3 A - -0.000002
1 3 C A 0.000920
1 3 C C -0.000027
1 3 C U -0.000236
1 3 C G -0.001184
1 3 C - 0.000268
1 3 U A -0.051334
1 3 U C 0.000736
1 3 U U 0.001100
1 3 U G -0.000414
1 3 U - 0.000019
1 3 G A 0.000925
1 3 G C -0.005551
1 3 G U -0.000052
1 3 G G 0.001518
1 3 G - 0.000777
1 3 - A 0.000695
1 3 - C -0.000020