# NB_STEPS 3000
# UP_FREQ 1000
# TEMP 1.000000
# LAMBDA 0.010000
# ID_THRES 1.000000
# ALPHA 1.000000
0 0 A A -0.000000
0 0 C C -0.000002
0 0 U U -0.000001
0 0 G G 0.000973
0 0 - - -0.006212
0 1 A A 0.000005
0 1 A C 0.000005
0 1 A U 0.000005
0 1 A G 0.000005
0 1 A - 0.030406
0 1 C A 0.000005
0 1 C C 0.000005
0 1 C U 0.000005
0 1 C G 0.000005
0 1 C - 0.000354
0 1 U A 0.000005
0 1 U C 0.000005
0 1 U U 0.000005
0 1 U G 0.000005
0 1 U - 0.006914
0 1 G A 0.000016
0 1 G C 0.000005
0 1 G U 0.000005
0 1 G G -0.000000
0 1 G - 0.025462
0 1 - A 0.011138
0 1 - C 0.008241
0 1 - U 0.011138
0 1 - G 0.022194
0 1 - - -0.306166
0 2 A A 0.000013
0 2 A C 0.000013
0 2 A U 0.000013
0 2 A G 0.000013
0 2 A - 0.027036
0 2 C A 0.000013
0 2 C C 0.000013
0 2 C U 0.000013
0 2 C G 0.000013
0 2 C - 0.000443
0 2 U A 0.000013
0 2 U C 0.000013
0 2 U U 0.000013
0 2 U G 0.000013
0 2 U - 0.005629
0 2 G A 0.000013
0 2 G C 0.000011
0 2 G U 0.000008
0 2 G G 0.000013
0 2 G - 0.017077
0 2 - A 0.001723
0 2 - C 0.024404
0 2 - U 0.034430
0 2 - G 0.007368
0 2 - - -0.310072
0 3 A A -0.000001
0 3 A C -0.000005
0 3 A U 0.000003
0 3 A G 0.000002
0 3 A - 0.000005
0 3 C A -0.000008
0 3 C C 0.000005
0 3 C U 0.000000
0 3 C G 0.000005
0 3 C - 0.000004
0 3 U A 0.000005
0 3 U C -0.000005
0 3 U U -0.000009
0 3 U G -0.000007
0 3 U - 0.000005
0 3 G A 0.000001
0 3 G C 0.000004
0 3 G U 0.000968
0 3 G G 0.000005
0 3 G - 0.000005
0 3 - A -0.002244
0 3 - C 0.002460
0 3 - U -0.021783
0 3 - G -0.003226
0 3 - - 0.037318
0 4 A A 0.000005
0 4 A C -0.000009
0 4 A U 0.000004
0 4 A G 0.000001
0 4 A - -0.000002
0 4 C A 0.000005
0 4 C C 0.000003
0 4 C U -0.000007
0 4 C G -0.000002
0 4 C - -0.000002
0 4 U A 0.000006
0 4 U C -0.000002
0 4 U U -0.000002
0 4 U G 0.000002
0 4 U - -0.000002
0 4 G A 0.000964
0 4 G C -0.000003
0 4 G U -0.000001
0 4 G G 0.000009
0 4 G - -0.000002
0 4 - A -0.011390
0 4 - C -0.001234
0 4 - U -0.005573
0 4 - G -0.000430
0 4 - - 0.035746
0 5 A A 0.000007
0 5 A C 0.000002
0 5 A U -0.000005
0 5 A G 0.000008
0 5 A - 0.000008
0 5 C A -0.000007
0 5 C C 0.000008
0 5 C U -0.000003
0 5 C G -0.000006
0 5 C - -0.000004
0 5 U A -0.000003
0 5 U C -0.000003
0 5 U U -0.000003
0 5 U G 0.000008
0 5 U - 0.000008
0 5 G A -0.000003
0 5 G C 0.000958
0 5 G U 0.000000
0 5 G G 0.000008
0 5 G - 0.000008
0 5 - A -0.009099
0 5 - C -0.006631
0 5 - U -0.000736
0 5 - G 0.001859
0 5 - - 0.033331
0 6 A A -0.000002
0 6 A C 0.000009
0 6 A U -0.000001
0 6 A G 0.000003
0 6 A - -0.000010
0 6 C A -0.000001
0 6 C C -0.000002
0 6 C U -0.000010
0 6 C G -0.000010
0 6 C - -0.000010
0 6 U A -0.000010
0 6 U C -0.000007
0 6 U U 0.000001
0 6 U G -0.000005
0 6 U - -0.000010
0 6 G A -0.000011
0 6 G C 0.000955
0 6 G U -0.000007
0 6 G G 0.000001
0 6 G - -0.000010
0 6 - A -0.008292
0 6 - C 0.003175
0 6 - U -0.005231
0 6 - G -0.000698
0 6 - - 0.027755
0 7 A A -0.000003
0 7 A C -0.000006
0 7 A U -0.000005
0 7 A G -0.000005
0 7 A - -0.000005
0 7 C A -0.000005
0 7 C C -0.000005
0 7 C U -0.000005
0 7 C G -0.000000
0 7 C - -0.000005
0 7 U A -0.000005
0 7 U C -0.000005
0 7 U U -0.000005
0 7 U G -0.000005
0 7 U - -0.000005
0 7 G A 0.000004
0 7 G C -0.000005
0 7 G U -0.000005
0 7 G G 0.000968
0 7 G - 0.000005
0 7 - A -0.009386
0 7 - C -0.001370
0 7 - U -0.009960
0 7 - G -0.000280
0 7 - - 0.017230
0 8 A A -0.000002
0 8 A C 0.000007
0 8 A U -0.000005
0 8 A G -0.000010
0 8 A - -0.000005
0 8 C A 0.000005
0 8 C C -0.000005
0 8 C U -0.000005
0 8 C G -0.000005
0 8 C - -0.000005
0 8 U A -0.000009
0 8 U C -0.000005
0 8 U U -0.000005
0 8 U G -0.000005
0 8 U - -0.000005
0 8 G A 0.000952
0 8 G C 0.000002
0 8 G U -0.000004
0 8 G G -0.000000
0 8 G - -0.000001
0 8 - A -0.000964
0 8 - C 0.000068
0 8 - U -0.008299
0 8 - G -0.002484
0 8 - - 0.026862
0 9 A A 0.000001
0 9 A C -0.000007
0 9 A U 0.000007
0 9 A G -0.000007
0 9 A - -0.000007
0 9 C A 0.000007
0 9 C C -0.000006
0 9 C U -0.000008
0 9 C G -0.000007
0 9 C - -0.000007
0 9 U A 0.000003
0 9 U C 0.000010
0 9 U U 0.000002
0 9 U G -0.000007
0 9 U - -0.000007
0 9 G A 0.000003
0 9 G C 0.000004
0 9 G U -0.000004
0 9 G G 0.000959
0 9 G - -0.000007
0 9 - A -0.011734
0 9 - C 0.000484
0 9 - U -0.020865
0 9 - G 0.000177
0 9 - - 0.029871
0 10 A A -0.000008
0 10 A C 0.000004
0 10 A U 0.000010
0 10 A G 0.000004
0 10 A - 0.000004
0 10 C A 0.000010
0 10 C C 0.000004
0 10 C U 0.000004
0 10 C G -0.000009
0 10 C - 0.000004
0 10 U A 0.000001
0 10 U C 0.000004
0 10 U U 0.000004
0 10 U G 0.000009
0 10 U - 0.000004
0 10 G A 0.000962
0 10 G C 0.000005
0 10 G U 0.000004
0 10 G G 0.000004
0 10 G - 0.000006
0 10 - A -0.015463
0 10 - C -0.007025
0 10 - U -0.003665
0 10 - G 0.000141
0 10 - - 0.020604
0 11 A A -0.000005
0 11 A C 0.000001
0 11 A U 0.000001
0 11 A G 0.000001
0 11 A - 0.000001
0 11 C A 0.000001
0 11 C C 0.000001
0 11 C U 0.000001
0 11 C G 0.000005
0 11 C - 0.000001
0 11 U A 0.000003
0 11 U C 0.000001
0 11 U U 0.000001
0 11 U G 0.000001
0 11 U - 0.000001
0 11 G A 0.000975
0 11 G C 0.000004
0 11 G U -0.000009
0 11 G G 0.000001
0 11 G - 0.000001
0 11 - A -0.047764
0 11 - C -0.000475
0 11 - U -0.000159
0 11 - G 0.002036
0 11 - - 0.034887
0 12 A A 0.000008
0 12 A C -0.000002
0 12 A U 0.000003
0 12 A G -0.000007
0 12 A - -0.000007
0 12 C A -0.000002
0 12 C C -0.000007
0 12 C U -0.000004
0 12 C G 0.000003
0 12 C - -0.000007
0 12 U A -0.000009
0 12 U C -0.000007
0 12 U U 0.000002
0 12 U G -0.000009
0 12 U - -0.000007
0 12 G A 0.000955
0 12 G C -0.000007
0 12 G U 0.000009
0 12 G G 0.000006
0 12 G - -0.000007
0 12 - A -0.003214
0 12 - C -0.001056
0 12 - U -0.000403
0 12 - G -0.008003
0 12 - - 0.021874
0 13 A A 0.000670
0 13 A C 0.000011
0 13 A U 0.000011
0 13 A G 0.000010
0 13 A - 0.000011
0 13 C A 0.000007
0 13 C C 0.000011
0 13 C U 0.000011
0 13 C G 0.000000
0 13 C - 0.000011
0 13 U A 0.000005
0 13 U C 0.000011
0 13 U U 0.000011
0 13 U G 0.000003
0 13 U - 0.000011
0 13 G A 0.000008
0 13 G C 0.000011
0 13 G U 0.000010
0 13 G G 0.000993
0 13 G - 0.000011
0 13 - A 0.000962
0 13 - C 0.010553
0 13 - U 0.004456
0 13 - G -0.148857
0 13 - - 0.003399
0 14 A A 0.000001
0 14 A C 0.000011
0 14 A U 0.000001
0 14 A G 0.000005
0 14 A - 0.000001
0 14 C A 0.000001
0 14 C C -0.000000
0 14 C U 0.000001
0 14 C G 0.000001
0 14 C - 0.000001
0 14 U A 0.000001
0 14 U C -0.000006
0 14 U U 0.000001
0 14 U G 0.000012
0 14 U - 0.000001
0 14 G A 0.000001
0 14 G C 0.000008
0 14 G U 0.000001
0 14 G G 0.000977
0 14 G - 0.000001
0 14 - A -0.000006
0 14 - C -0.006677
0 14 - U 0.004097
0 14 - G -0.084547
0 14 - - 0.000362
0 15 A A -0.000005
0 15 A C 0.000010
0 15 A U 0.000008
0 15 A G -0.000005
0 15 A - -0.000005
0 15 C A -0.000005
0 15 C C 0.000005
0 15 C U -0.000005
0 15 C G -0.000005
0 15 C - -0.000005
0 15 U A -0.000005
0 15 U C 0.000008
0 15 U U -0.000003
0 15 U G -0.000005
0 15 U - -0.000005
0 15 G A 0.000000
0 15 G C 0.000999
0 15 G U 0.000011
0 15 G G 0.000003
0 15 G - -0.000005
0 15 - A 0.019044
0 15 - C -0.142709
0 15 - U -0.000559
0 15 - G 0.005049
0 15 - - 0.002291
0 16 A A 0.000012
0 16 A C 0.000008
0 16 A U 0.000008
0 16 A G 0.000008
0 16 A - -0.000005
0 16 C A -0.000005
0 16 C C 0.000008
0 16 C U 0.000008
0 16 C G 0.000008
0 16 C - 0.000008
0 16 U A -0.000001
0 16 U C 0.000008
0 16 U U 0.000008
0 16 U G 0.000008
0 16 U - 0.000008
0 16 G A 0.000978
0 16 G C 0.000013
0 16 G U 0.000008
0 16 G G -0.000005
0 16 G - 0.000008
0 16 - A -0.143551
0 16 - C 0.000731
0 16 - U 0.001741
0 16 - G -0.000021
0 16 - - 0.030789
0 17 A A -0.000002
0 17 A C 0.000009
0 17 A U -0.000002
0 17 A G -0.000002
0 17 A - -0.000002
0 17 C A 0.000009
0 17 C C -0.000002
0 17 C U -0.000002
0 17 C G -0.000002
0 17 C - -0.000002
0 17 U A 0.000008
0 17 U C -0.000002
0 17 U U -0.000002
0 17 U G -0.000002
0 17 U - -0.000002
0 17 G A 0.000981
0 17 G C 0.000008
0 17 G U 0.000000
0 17 G G -0.000002
0 17 G - -0.000002
0 17 - A -0.068776
0 17 - C -0.025876
0 17 - U 0.005591
0 17 - G 0.001383
0 17 - - 0.021769
0 18 A A -0.000008
0 18 A C -0.000009
0 18 A U -0.000002
0 18 A G -0.000002
0 18 A - -0.000002
0 18 C A -0.000004
0 18 C C -0.000002
0 18 C U -0.000002
0 18 C G -0.000002
0 18 C - -0.000002
0 18 U A -0.000004
0 18 U C -0.000002
0 18 U U -0.000002
0 18 U G -0.000002
0 18 U - -0.000002
0 18 G A 0.000978
0 18 G C -0.000001
0 18 G U 0.000011
0 18 G G -0.000002
0 18 G - -0.000002
0 18 - A -0.040001
0 18 - C -0.012210
0 18 - U -0.000035
0 18 - G 0.002392
0 18 - - 0.014370
0 19 A A -0.000001
0 19 A C -0.000009
0 19 A U -0.000001
0 19 A G -0.000001
0 19 A - -0.000001
0 19 C A -0.000001
0 19 C C 0.000003
0 19 C U -0.000001
0 19 C G -0.000001
0 19 C - -0.000001
0 19 U A -0.000001
0 19 U C 0.000002
0 19 U U -0.000001
0 19 U G -0.000001
0 19 U - -0.000001
0 19 G A 0.000002
0 19 G C 0.000971
0 19 G U 0.000010
0 19 G G -0.000001
0 19 G - -0.000001
0 19 - A -0.000472
0 19 - C -0.029946
0 19 - U -0.003822
0 19 - G -0.000448
0 19 - - 0.022150
0 20 A A 0.000004
0 20 A C -0.000003
0 20 A U -0.000002
0 20 A G 0.000004
0 20 A - 0.000004
0 20 C A 0.000004
0 20 C C -0.000002
0 20 C U 0.000000
0 20 C G 0.000004
0 20 C - 0.000004
0 20 U A 0.000004
0 20 U C 0.000007
0 20 U U 0.000007
0 20 U G 0.000004
0 20 U - 0.000004
0 20 G A 0.000004
0 20 G C 0.000984
0 20 G U 0.000010
0 20 G G 0.000004
0 20 G - 0.000004
0 20 - A -0.000000
0 20 - C -0.063908
0 20 - U -0.034537
0 20 - G 0.010636
0 20 - - 0.017246
0 21 A A -0.000002
0 21 A C 0.000005
0 21 A U 0.000006
0 21 A G -0.000008
0 21 A - -0.000008
0 21 C A 0.000001
0 21 C C -0.000002
0 21 C U -0.000008
0 21 C G -0.000008
0 21 C - -0.000008
0 21 U A -0.000004
0 21 U C 0.000000
0 21 U U -0.000008
0 21 U G -0.000008
0 21 U - -0.000008
0 21 G A 0.000005
0 21 G C 0.000974
0 21 G U -0.000008
0 21 G G 0.000000
0 21 G - -0.000008
0 21 - A -0.004706
0 21 - C -0.001723
0 21 - U -0.006180
0 21 - G -0.000836
0 21 - - 0.020762
0 22 A A -0.000001
0 22 A C 0.000009
0 22 A U 0.000007
0 22 A G -0.000007
0 22 A - -0.000001
0 22 C A -0.000009
0 22 C C -0.000001
0 22 C U -0.000005
0 22 C G -0.000001
0 22 C - -0.000001
0 22 U A -0.000010
0 22 U C 0.000007
0 22 U U -0.000002
0 22 U G 0.000010
0 22 U - -0.000001
0 22 G A 0.000001
0 22 G C 0.000003
0 22 G U 0.000968
0 22 G G -0.000003
0 22 G - -0.000001
0 22 - A 0.002273
0 22 - C -0.001224
0 22 - U -0.005064
0 22 - G -0.006709
0 22 - - 0.018992
0 23 A A 0.000002
0 23 A C 0.000001
0 23 A U -0.000006
0 23 A G -0.000007
0 23 A - 0.000002
0 23 C A 0.000002
0 23 C C 0.000002
0 23 C U 0.000009
0 23 C G 0.000008
0 23 C - 0.000002
0 23 U A 0.000002
0 23 U C -0.000000
0 23 U U -0.000006
0 23 U G 0.000002
0 23 U - 0.000002
0 23 G A 0.000002
0 23 G C -0.000003
0 23 G U 0.000006
0 23 G G 0.000964
0 23 G - 0.000002
0 23 - A 0.002581
0 23 - C -0.001103
0 23 - U -0.011669
0 23 - G -0.001722
0 23 - - 0.017564
0 24 A A 0.000000
0 24 A C -0.000009
0 24 A U -0.000006
0 24 A G -0.000006
0 24 A - -0.000006
0 24 C A -0.000001
0 24 C C -0.000006
0 24 C U 0.000005
0 24 C G -0.000006
0 24 C - -0.000006
0 24 U A -0.000006
0 24 U C -0.000004
0 24 U U 0.000007
0 24 U G -0.000006
0 24 U - -0.000006
0 24 G A -0.000002
0 24 G C 0.000009
0 24 G U -0.000006
0 24 G G 0.000965
0 24 G - -0.000006
0 24 - A -0.001048
0 24 - C -0.002105
0 24 - U -0.003014
0 24 - G -0.001472
0 24 - - 0.012636
0 25 A A 0.000005
0 25 A C 0.000005
0 25 A U 0.000005
0 25 A G 0.000221
0 25 A - 0.000005
0 25 C A 0.000005
0 25 C C 0.000005
0 25 C U 0.000005
0 25 C G 0.000003
0 25 C - 0.000005
0 25 U A 0.000005
0 25 U C 0.000005
0 25 U U 0.000005
0 25 U G 0.000014
0 25 U - 0.000005
0 25 G A -0.000002
0 25 G C 0.000005
0 25 G U 0.000005
0 25 G G 0.000981
0 25 G - 0.000005
0 25 - A 0.012155
0 25 - C 0.007491
0 25 - U 0.002213
0 25 - G -0.136656
0 25 - - 0.000543
0 26 A A 0.000001
0 26 A C -0.000006
0 26 A U -0.000005
0 26 A G 0.000001
0 26 A - 0.000001
0 26 C A -0.000004
0 26 C C 0.000009
0 26 C U -0.000009
0 26 C G 0.000001
0 26 C - 0.000001
0 26 U A -0.000008
0 26 U C -0.000008
0 26 U U 0.000002
0 26 U G 0.000001
0 26 U - 0.000001
0 26 G A 0.000001
0 26 G C 0.000009
0 26 G U 0.000959
0 26 G G 0.000001
0 26 G - 0.000001
0 26 - A -0.013929
0 26 - C -0.004315
0 26 - U -0.004606
0 26 - G 0.016756
0 26 - - 0.005776
0 27 A A -0.000005
0 27 A C 0.000006
0 27 A U 0.000006
0 27 A G 0.000010
0 27 A - 0.000006
0 27 C A 0.000010
0 27 C C 0.000006
0 27 C U 0.000006
0 27 C G -0.000006
0 27 C - 0.000006
0 27 U A 0.000005
0 27 U C 0.000006
0 27 U U 0.000006
0 27 U G 0.000011
0 27 U - 0.000006
0 27 G A 0.000009
0 27 G C 0.000008
0 27 G U 0.000006
0 27 G G 0.000978
0 27 G - 0.000006
0 27 - A -0.067119
0 27 - C 0.017567
0 27 - U 0.017417
0 27 - G -0.009007
0 27 - - 0.001104
0 28 A A 0.000554
0 28 A C -0.000005
0 28 A U -0.000005
0 28 A G -0.000005
0 28 A - -0.000005
0 28 C A 0.000013
0 28 C C -0.000005
0 28 C U -0.000005
0 28 C G -0.000005
0 28 C - -0.000005
0 28 U A 0.000010
0 28 U C -0.000005
0 28 U U -0.000005
0 28 U G -0.000005
0 28 U - -0.000005
0 28 G A 0.000987
0 28 G C -0.000005
0 28 G U 0.000002
0 28 G G -0.000005
0 28 G - -0.000005
0 28 - A -0.197172
0 28 - C 0.026800
0 28 - U 0.021742
0 28 - G 0.021019
0 28 - - -0.000085
0 29 A A -0.000002
0 29 A C -0.000002
0 29 A U -0.000003
0 29 A G -0.000009
0 29 A - -0.000002
0 29 C A -0.000002
0 29 C C -0.000002
0 29 C U -0.000006
0 29 C G -0.000007
0 29 C - -0.000002
0 29 U A -0.000002
0 29 U C -0.000002
0 29 U U 0.000002
0 29 U G -0.000003
0 29 U - -0.000002
0 29 G A 0.000003
0 29 G C 0.000976
0 29 G U -0.000001
0 29 G G -0.000007
0 29 G - -0.000002
0 29 - A -0.002618
0 29 - C -0.001972
0 29 - U 0.001986
0 29 - G -0.024343
0 29 - - 0.015224
0 30 A A -0.000000
0 30 A C 0.000006
0 30 A U -0.000000
0 30 A G 0.000008
0 30 A - -0.000000
0 30 C A -0.000000
0 30 C C 0.000001
0 30 C U -0.000000
0 30 C G -0.000006
0 30 C - -0.000000
0 30 U A -0.000000
0 30 U C -0.000004
0 30 U U -0.000000
0 30 U G 0.000002
0 30 U - -0.000008
0 30 G A -0.000009
0 30 G C 0.000975
0 30 G U 0.000008
0 30 G G 0.000009
0 30 G - -0.000000
0 30 - A -0.003764
0 30 - C 0.000311
0 30 - U 0.001016
0 30 - G -0.015850
0 30 - - 0.018534
0 31 A A -0.000007
0 31 A C 0.000003
0 31 A U 0.000005
0 31 A G 0.000005
0 31 A - 0.000005
0 31 C A -0.000003
0 31 C C -0.000003
0 31 C U 0.000001
0 31 C G 0.000005
0 31 C - 0.000005
0 31 U A -0.000002
0 31 U C -0.000004
0 31 U U -0.000009
0 31 U G -0.000007
0 31 U - 0.000005
0 31 G A 0.000966
0 31 G C -0.000002
0 31 G U -0.000004
0 31 G G -0.000006
0 31 G - 0.000009
0 31 - A 0.000373
0 31 - C -0.012221
0 31 - U -0.000822
0 31 - G -0.001018
0 31 - - 0.019374
0 32 A A 0.000007
0 32 A C -0.000005
0 32 A U -0.000005
0 32 A G 0.000005
0 32 A - -0.000005
0 32 C A -0.000005
0 32 C C -0.000005
0 32 C U 0.000005
0 32 C G -0.000009
0 32 C - -0.000005
0 32 U A -0.000005
0 32 U C -0.000005
0 32 U U 0.000004
0 32 U G 0.000003
0 32 U - -0.000005
0 32 G A -0.000003
0 32 G C -0.000005
0 32 G U 0.000008
0 32 G G 0.000964
0 32 G - 0.000001
0 32 - A -0.006049
0 32 - C -0.002238
0 32 - U -0.000215
0 32 - G -0.000098
0 32 - - 0.021333
0 33 A A -0.000005
0 33 A C -0.000005
0 33 A U -0.000005
0 33 A G 0.000002
0 33 A - -0.000005
0 33 C A 0.000007
0 33 C C -0.000005
0 33 C U -0.000005
0 33 C G 0.000012
0 33 C - -0.000005
0 33 U A 0.000008
0 33 U C -0.000005
0 33 U U -0.000005
0 33 U G -0.000004
0 33 U - -0.000005
0 33 G A 0.000006
0 33 G C -0.000005
0 33 G U -0.000005
0 33 G G 0.000978
0 33 G - 0.000003
0 33 - A -0.014411
0 33 - C 0.020529
0 33 - U 0.003449
0 33 - G -0.133766
0 33 - - 0.028397
0 34 A A 0.000004
0 34 A C 0.000004
0 34 A U 0.000004
0 34 A G 0.000003
0 34 A - -0.000002
0 34 C A 0.000004
0 34 C C -0.000009
0 34 C U 0.000004
0 34 C G -0.000009
0 34 C - 0.000004
0 34 U A 0.000004
0 34 U C 0.000004
0 34 U U 0.000004
0 34 U G -0.000001
0 34 U - 0.000004
0 34 G A 0.000004
0 34 G C 0.000004
0 34 G U 0.000004
0 34 G G 0.000956
0 34 G - 0.000004
0 34 - A -0.001378
0 34 - C 0.002828
0 34 - U -0.004108
0 34 - G -0.049178
0 34 - - 0.038388
0 35 A A 0.000011
0 35 A C 0.000011
0 35 A U 0.000011
0 35 A G -0.000007
0 35 A - 0.000011
0 35 C A 0.000011
0 35 C C 0.000011
0 35 C U 0.000009
0 35 C G 0.000004
0 35 C - 0.000011
0 35 U A 0.000011
0 35 U C 0.000011
0 35 U U 0.000011
0 35 U G 0.000004
0 35 U - 0.000011
0 35 G A 0.000011
0 35 G C 0.000011
0 35 G U 0.000011
0 35 G G 0.000972
0 35 G - 0.000008
0 35 - A -0.000018
0 35 - C -0.000021
0 35 - U -0.001216
0 35 - G -0.075880
0 35 - - 0.014118
0 36 A A 0.000009
0 36 A C 0.000004
0 36 A U 0.000004
0 36 A G -0.000009
0 36 A - 0.000009
0 36 C A 0.000002
0 36 C C 0.000004
0 36 C U 0.000004
0 36 C G 0.000000
0 36 C - 0.000004
0 36 U A 0.000007
0 36 U C 0.000004
0 36 U U 0.000004
0 36 U G 0.000004
0 36 U - 0.000004
0 36 G A 0.000008
0 36 G C -0.000005
0 36 G U 0.000004
0 36 G G 0.000968
0 36 G - 0.000004
0 36 - A -0.011311
0 36 - C 0.000429
0 36 - U -0.001390
0 36 - G -0.003174
0 36 - - 0.025258
0 37 A A 0.000016
0 37 A C 0.010070
0 37 A U 0.000016
0 37 A G 0.000002
0 37 A - 0.000016
0 37 C A 0.000016
0 37 C C 0.000001
0 37 C U 0.000016
0 37 C G 0.000016
0 37 C - 0.000016
0 37 U A 0.000016
0 37 U C 0.001581
0 37 U U 0.000016
0 37 U G 0.000016
0 37 U - 0.000016
0 37 G A 0.000016
0 37 G C 0.011406
0 37 G U 0.000016
0 37 G G 0.000003
0 37 G - 0.000016
0 37 - A 0.001356
0 37 - C -0.227596
0 37 - U 0.000006
0 37 - G 0.007067
0 37 - - 0.020012
0 38 A A 0.000009
0 38 A C 0.000009
0 38 A U 0.000009
0 38 A G -0.000001
0 38 A - 0.000009
0 38 C A 0.000010
0 38 C C 0.000009
0 38 C U 0.000009
0 38 C G 0.000006
0 38 C - 0.000009
0 38 U A 0.000010
0 38 U C 0.000009
0 38 U U 0.000009
0 38 U G 0.000013
0 38 U - 0.000009
0 38 G A 0.000001
0 38 G C 0.000009
0 38 G U 0.000009
0 38 G G 0.000974
0 38 G - 0.000009
0 38 - A -0.009107
0 38 - C 0.017835
0 38 - U 0.019501
0 38 - G -0.138850
0 38 - - 0.007864
0 39 A A 0.000012
0 39 A C 0.000003
0 39 A U 0.000012
0 39 A G 0.000001
0 39 A - 0.000012
0 39 C A 0.000012
0 39 C C 0.000006
0 39 C U 0.000012
0 39 C G -0.000002
0 39 C - 0.000012
0 39 U A 0.000012
0 39 U C 0.000005
0 39 U U 0.000012
0 39 U G 0.000011
0 39 U - 0.000012
0 39 G A 0.000012
0 39 G C 0.000989
0 39 G U 0.000003
0 39 G G 0.000007
0 39 G - 0.000012
0 39 - A 0.000398
0 39 - C -0.090622
0 39 - U 0.001774
0 39 - G -0.008282
0 39 - - 0.017640
0 40 A A 0.028521
0 40 A C 0.000004
0 40 A U 0.000004
0 40 A G 0.000004
0 40 A - 0.000004
0 40 C A 0.000099
0 40 C C 0.000004
0 40 C U 0.000004
0 40 C G 0.000004
0 40 C - 0.000004
0 40 U A 0.002663
0 40 U C 0.000004
0 40 U U 0.000004
0 40 U G 0.000004
0 40 U - 0.000004
0 40 G A 0.016219
0 40 G C 0.000004
0 40 G U 0.000004
0 40 G G 0.000003
0 40 G - 0.000004
0 40 - A -0.263176
0 40 - C 0.017525
0 40 - U 0.003733
0 40 - G 0.002862
0 40 - - 0.008409
0 41 A A 0.001114
0 41 A C 0.000011
0 41 A U 0.000011
0 41 A G 0.000011
0 41 A - 0.000011
0 41 C A 0.000008
0 41 C C 0.000011
0 41 C U 0.000011
0 41 C G 0.000011
0 41 C - 0.000011
0 41 U A 0.000009
0 41 U C 0.000011
0 41 U U 0.000011
0 41 U G 0.000011
0 41 U - -0.000001
0 41 G A 0.000996
0 41 G C 0.000011
0 41 G U -0.000000
0 41 G G -0.000001
0 41 G - 0.000011
0 41 - A -0.203181
0 41 - C 0.009982
0 41 - U 0.002189
0 41 - G 0.001053
0 41 - - 0.039409
0 42 A A 0.006568
0 42 A C 0.000000
0 42 A U 0.000000
0 42 A G 0.000000
0 42 A - 0.000000
0 42 C A -0.000001
0 42 C C 0.000000
0 42 C U 0.000000
0 42 C G 0.000000
0 42 C - 0.000005
0 42 U A 0.000009
0 42 U C 0.000000
0 42 U U 0.000000
0 42 U G -0.000000
0 42 U - 0.000000
0 42 G A 0.008644
0 42 G C 0.000000
0 42 G U 0.000000
0 42 G G 0.000000
0 42 G - 0.000000
0 42 - A -0.234280
0 42 - C 0.000004
0 42 - U 0.000002
0 42 - G 0.034530
0 42 - - 0.021238
0 43 A A 0.000013
0 43 A C 0.000013
0 43 A U 0.000013
0 43 A G 0.000022
0 43 A - 0.000013
0 43 C A 0.000013
0 43 C C 0.000013
0 43 C U 0.000013
0 43 C G 0.000007
0 43 C - 0.000013
0 43 U A -0.000004
0 43 U C 0.000013
0 43 U U 0.000013
0 43 U G 0.000002
0 43 U - 0.000013
0 43 G A 0.000006
0 43 G C 0.000013
0 43 G U 0.000001
0 43 G G 0.000979
0 43 G - 0.000013
0 43 - A -0.006521
0 43 - C 0.015193
0 43 - U 0.010656
0 43 - G -0.149300
0 43 - - 0.025657
0 44 A A 0.000007
0 44 A C -0.000008
0 44 A U 0.000008
0 44 A G 0.000007
0 44 A - 0.000007
0 44 C A 0.000007
0 44 C C -0.000007
0 44 C U -0.000000
0 44 C G 0.000007
0 44 C - 0.000007
0 44 U A 0.000007
0 44 U C 0.000008
0 44 U U 0.000007
0 44 U G 0.000007
0 44 U - 0.000007
0 44 G A 0.000007
0 44 G C -0.000002
0 44 G U 0.000972
0 44 G G -0.000006
0 44 G - 0.000007
0 44 - A 0.016241
0 44 - C -0.070796
0 44 - U -0.029255
0 44 - G 0.001132
0 44 - - 0.031651
0 45 A A 0.000003
0 45 A C -0.000006
0 45 A U -0.000009
0 45 A G 0.000002
0 45 A - 0.000002
0 45 C A -0.000002
0 45 C C 0.000005
0 45 C U -0.000009
0 45 C G 0.000002
0 45 C - 0.000002
0 45 U A 0.000002
0 45 U C 0.000008
0 45 U U -0.000002
0 45 U G 0.000002
0 45 U - 0.000002
0 45 G A 0.000968
0 45 G C -0.000006
0 45 G U 0.000002
0 45 G G -0.000003
0 45 G - 0.000002
0 45 - A -0.001676
0 45 - C -0.002481
0 45 - U -0.044421
0 45 - G -0.000896
0 45 - - 0.037745
0 46 A A 0.000003
0 46 A C 0.000003
0 46 A U 0.000008
0 46 A G -0.000008
0 46 A - 0.000003
0 46 C A 0.000004
0 46 C C 0.000003
0 46 C U 0.000003
0 46 C G 0.000003
0 46 C - 0.000003
0 46 U A -0.000007
0 46 U C 0.000003
0 46 U U 0.000002
0 46 U G 0.000003
0 46 U - 0.000003
0 46 G A 0.000003
0 46 G C 0.000003
0 46 G U 0.000008
0 46 G G 0.000959
0 46 G - 0.000003
0 46 - A -0.036862
0 46 - C 0.000038
0 46 - U 0.002184
0 46 - G -0.004838
0 46 - - 0.031366
0 47 A A 0.000000
0 47 A C -0.000006
0 47 A U 0.000005
0 47 A G -0.000002
0 47 A - 0.000007
0 47 C A -0.000006
0 47 C C 0.000004
0 47 C U 0.000007
0 47 C G 0.000007
0 47 C - 0.000007
0 47 U A 0.000002
0 47 U C -0.000004
0 47 U U 0.000007
0 47 U G 0.000007
0 47 U - 0.000007
0 47 G A 0.000009
0 47 G C 0.000957
0 47 G U -0.000009
0 47 G G -0.000002
0 47 G - 0.000007
0 47 - A 0.001516
0 47 - C -0.007259
0 47 - U -0.003137
0 47 - G 0.000287
0 47 - - 0.005616
0 48 A A 0.000010
0 48 A C 0.000010
0 48 A U 0.000010
0 48 A G 0.000010
0 48 A - 0.000771
0 48 C A 0.000010
0 48 C C 0.000010
0 48 C U 0.000010
0 48 C G 0.000010
0 48 C - 0.000007
0 48 U A 0.000010
0 48 U C 0.000010
0 48 U U 0.000010
0 48 U G 0.000010
0 48 U - 0.000011
0 48 G A 0.000005
0 48 G C 0.000010
0 48 G U 0.000010
0 48 G G 0.000002
0 48 G - 0.004386
0 48 - A -0.000842
0 48 - C 0.045058
0 48 - U 0.031109
0 48 - G 0.007256
0 48 - - -0.220065
0 49 A A -0.000007
0 49 A C 0.000004
0 49 A U -0.000007
0 49 A G 0.000010
0 49 A - -0.000007
0 49 C A -0.000007
0 49 C C -0.000007
0 49 C U -0.000007
0 49 C G 0.000007
0 49 C - -0.000007
0 49 U A 0.000001
0 49 U C -0.000007
0 49 U U -0.000007
0 49 U G 0.000002
0 49 U - -0.000007
0 49 G A -0.000004
0 49 G C -0.000007
0 49 G U -0.000007
0 49 G G 0.000974
0 49 G - -0.000007
0 49 - A -0.000681
0 49 - C -0.001811
0 49 - U 0.003918
0 49 - G -0.031669
0 49 - - 0.004426
0 50 A A -0.000002
0 50 A C 0.000009
0 50 A U 0.000009
0 50 A G -0.000001
0 50 A - 0.000009
0 50 C A 0.000009
0 50 C C 0.000009
0 50 C U 0.000009
0 50 C G 0.000002
0 50 C - 0.000009
0 50 U A 0.000009
0 50 U C 0.000009
0 50 U U 0.000009
0 50 U G -0.000004
0 50 U - 0.000009
0 50 G A 0.000000
0 50 G C 0.000009
0 50 G U 0.000009
0 50 G G 0.000968
0 50 G - 0.000009
0 50 - A -0.001861
0 50 - C 0.009444
0 50 - U -0.000467
0 50 - G -0.015173
0 50 - - -0.000057
0 51 A A -0.000002
0 51 A C 0.000005
0 51 A U 0.000005
0 51 A G -0.000006
0 51 A - 0.000005
0 51 C A -0.000004
0 51 C C 0.000005
0 51 C U 0.000005
0 51 C G -0.000001
0 51 C - 0.000005
0 51 U A 0.000005
0 51 U C -0.000003
0 51 U U 0.000005
0 51 U G -0.000007
0 51 U - 0.000005
0 51 G A -0.000006
0 51 G C 0.000005
0 51 G U 0.000005
0 51 G G 0.000970
0 51 G - 0.000007
0 51 - A -0.023786
0 51 - C -0.000148
0 51 - U 0.004036
0 51 - G -0.000661
0 51 - - 0.004663
0 52 A A 0.000010
0 52 A C -0.000006
0 52 A U -0.000003
0 52 A G -0.000007
0 52 A - 0.000006
0 52 C A 0.000006
0 52 C C 0.000006
0 52 C U -0.000004
0 52 C G 0.000006
0 52 C - 0.000006
0 52 U A -0.000006
0 52 U C 0.000006
0 52 U U -0.000005
0 52 U G 0.000006
0 52 U - 0.000006
0 52 G A -0.000005
0 52 G C -0.000005
0 52 G U 0.000954
0 52 G G 0.000006
0 52 G - 0.000007
0 52 - A -0.001308
0 52 - C -0.006794
0 52 - U -0.001350
0 52 - G -0.001044
0 52 - - 0.010523
0 53 A A -0.000001
0 53 A C 0.000004
0 53 A U -0.000004
0 53 A G -0.000004
0 53 A - -0.000003
0 53 C A -0.000002
0 53 C C 0.000008
0 53 C U -0.000004
0 53 C G -0.000004
0 53 C - -0.000004
0 53 U A -0.000004
0 53 U C 0.000002
0 53 U U -0.000004
0 53 U G -0.000004
0 53 U - -0.000004
0 53 G A -0.000004
0 53 G C 0.000983
0 53 G U -0.000004
0 53 G G -0.000004
0 53 G - -0.000004
0 53 - A 0.005128
0 53 - C -0.097959
0 53 - U 0.003149
0 53 - G -0.000010
0 53 - - 0.000082
0 54 A A 0.000008
0 54 A C -0.000000
0 54 A U 0.000004
0 54 A G 0.000008
0 54 A - 0.000005
0 54 C A 0.000008
0 54 C C 0.000008
0 54 C U -0.000003
0 54 C G -0.000001
0 54 C - -0.000005
0 54 U A 0.000008
0 54 U C -0.000001
0 54 U U 0.000004
0 54 U G 0.000008
0 54 U - -0.000005
0 54 G A 0.000008
0 54 G C 0.000004
0 54 G U -0.000007
0 54 G G 0.000010
0 54 G - 0.000960
0 54 - A 0.011953
0 54 - C -0.008923
0 54 - U -0.025130
0 54 - G 0.014920
0 54 - - -0.004989
0 55 A A 0.000003
0 55 A C 0.000010
0 55 A U -0.000007
0 55 A G 0.000003
0 55 A - 0.000007
0 55 C A -0.000005
0 55 C C 0.000003
0 55 C U -0.000009
0 55 C G 0.000003
0 55 C - -0.000010
0 55 U A -0.000007
0 55 U C -0.000009
0 55 U U 0.000002
0 55 U G 0.000003
0 55 U - 0.000001
0 55 G A -0.000006
0 55 G C 0.000007
0 55 G U -0.000000
0 55 G G -0.000005
0 55 G - 0.000965
0 55 - A -0.001187
0 55 - C 0.000729
0 55 - U -0.003007
0 55 - G 0.002192
0 55 - - -0.002529
0 56 A A -0.000005
0 56 A C -0.000009
0 56 A U -0.000002
0 56 A G 0.000006
0 56 A - -0.000005
0 56 C A 0.000005
0 56 C C 0.000003
0 56 C U 0.000002
0 56 C G 0.000008
0 56 C - -0.000002
0 56 U A -0.000002
0 56 U C -0.000009
0 56 U U -0.000002
0 56 U G -0.000002
0 56 U - -0.000005
0 56 G A 0.000007
0 56 G C -0.000004
0 56 G U -0.000002
0 56 G G 0.000004
0 56 G - 0.000967
0 56 - A 0.004659
0 56 - C -0.001720
0 56 - U -0.008053
0 56 - G -0.002056
0 56 - - 0.018527
0 57 A A 0.000002
0 57 A C 0.000000
0 57 A U 0.000002
0 57 A G -0.000002
0 57 A - 0.000001
0 57 C A 0.000006
0 57 C C 0.000002
0 57 C U -0.000009
0 57 C G 0.000002
0 57 C - 0.000002
0 57 U A -0.000009
0 57 U C 0.000002
0 57 U U 0.000002
0 57 U G 0.000010
0 57 U - 0.000006
0 57 G A 0.000005
0 57 G C 0.000000
0 57 G U 0.000008
0 57 G G 0.000008
0 57 G - 0.000965
0 57 - A 0.000410
0 57 - C 0.000081
0 57 - U -0.000714
0 57 - G -0.004230
0 57 - - 0.002021
0 58 A A -0.000005
0 58 A C 0.000003
0 58 A U 0.000009
0 58 A G -0.000005
0 58 A - -0.000001
0 58 C A -0.000005
0 58 C C -0.000005
0 58 C U -0.000005
0 58 C G 0.000007
0 58 C - 0.000008
0 58 U A -0.000005
0 58 U C -0.000005
0 58 U U -0.000005
0 58 U G 0.000009
0 58 U - 0.000001
0 58 G A -0.000005
0 58 G C -0.000005
0 58 G U -0.000010
0 58 G G -0.000005
0 58 G - 0.000973
0 58 - A -0.001163
0 58 - C 0.000104
0 58 - U 0.000602
0 58 - G -0.000673
0 58 - - -0.002187
0 59 A A -0.000002
0 59 A C -0.000004
0 59 A U 0.000000
0 59 A G 0.000004
0 59 A - -0.000005
0 59 C A -0.000010
0 59 C C -0.000010
0 59 C U -0.000002
0 59 C G 0.000000
0 59 C - -0.000003
0 59 U A -0.000010
0 59 U C -0.000001
0 59 U U -0.000010
0 59 U G -0.000005
0 59 U - -0.000009
0 59 G A -0.000010
0 59 G C 0.000008
0 59 G U -0.000010
0 59 G G 0.000003
0 59 G - 0.000962
0 59 - A 0.000364
0 59 - C -0.002873
0 59 - U -0.001667
0 59 - G -0.002753
0 59 - - 0.012180
0 60 A A -0.000004
0 60 A C -0.000007
0 60 A U 0.000006
0 60 A G 0.000006
0 60 A - 0.000008
0 60 C A -0.000003
0 60 C C 0.000006
0 60 C U -0.000001
0 60 C G 0.000006
0 60 C - -0.000007
0 60 U A -0.000010
0 60 U C 0.000006
0 60 U U 0.000006
0 60 U G -0.000004
0 60 U - 0.000006
0 60 G A 0.000001
0 60 G C -0.000002
0 60 G U 0.000006
0 60 G G -0.000005
0 60 G - 0.000970
0 60 - A -0.000123
0 60 - C 0.000054
0 60 - U -0.001424
0 60 - G -0.008044
0 60 - - 0.013140
0 61 A A 0.000003
0 61 A C 0.000003
0 61 A U 0.000003
0 61 A G 0.000000
0 61 A - 0.000003
0 61 C A 0.000003
0 61 C C 0.000003
0 61 C U 0.000003
0 61 C G 0.000007
0 61 C - 0.000003
0 61 U A 0.000003
0 61 U C 0.000003
0 61 U U 0.000003
0 61 U G -0.000005
0 61 U - 0.000003
0 61 G A 0.000003
0 61 G C -0.000000
0 61 G U 0.000003
0 61 G G 0.000978
0 61 G - 0.000003
0 61 - A 0.008883
0 61 - C 0.000005
0 61 - U 0.024058
0 61 - G -0.133823
0 61 - - 0.001182
0 62 A A 0.000005
0 62 A C 0.000006
0 62 A U 0.000006
0 62 A G -0.000008
0 62 A - 0.000006
0 62 C A 0.000003
0 62 C C 0.000006
0 62 C U 0.000006
0 62 C G 0.000006
0 62 C - 0.000006
0 62 U A -0.000001
0 62 U C 0.000006
0 62 U U -0.000009
0 62 U G 0.000006
0 62 U - 0.000006
0 62 G A 0.000968
0 62 G C -0.000009
0 62 G U -0.000006
0 62 G G -0.000000
0 62 G - 0.000006
0 62 - A 0.001155
0 62 - C -0.001194
0 62 - U 0.000177
0 62 - G -0.001863
0 62 - - -0.000089
0 63 A A -0.000007
0 63 A C 0.000006
0 63 A U 0.000004
0 63 A G -0.000003
0 63 A - -0.000006
0 63 C A -0.000006
0 63 C C -0.000007
0 63 C U -0.000004
0 63 C G -0.000006
0 63 C - -0.000006
0 63 U A -0.000006
0 63 U C 0.000003
0 63 U U 0.000001
0 63 U G -0.000006
0 63 U - -0.000006
0 63 G A -0.000006
0 63 G C 0.000004
0 63 G U 0.000974
0 63 G G -0.000006
0 63 G - -0.000006
0 63 - A -0.000206
0 63 - C 0.001489
0 63 - U -0.037958
0 63 - G -0.000096
0 63 - - 0.010165
0 64 A A -0.000004
0 64 A C -0.000003
0 64 A U -0.000003
0 64 A G 0.000004
0 64 A - -0.000003
0 64 C A 0.000008
0 64 C C -0.000003
0 64 C U -0.000003
0 64 C G -0.000003
0 64 C - -0.000003
0 64 U A 0.000003
0 64 U C -0.000003
0 64 U U -0.000003
0 64 U G -0.000007
0 64 U - -0.000003
0 64 G A 0.000964
0 64 G C 0.000009
0 64 G U -0.000003
0 64 G G 0.000003
0 64 G - 0.000006
0 64 - A -0.021346
0 64 - C -0.003124
0 64 - U 0.001235
0 64 - G -0.000646
0 64 - - 0.005368
0 65 A A 0.000008
0 65 A C 0.000008
0 65 A U 0.000008
0 65 A G 0.001331
0 65 A - 0.000008
0 65 C A 0.000008
0 65 C C 0.000008
0 65 C U 0.000008
0 65 C G -0.000002
0 65 C - 0.000008
0 65 U A 0.000008
0 65 U C 0.000008
0 65 U U 0.000008
0 65 U G 0.000001
0 65 U - 0.000008
0 65 G A 0.000012
0 65 G C 0.000009
0 65 G U 0.000008
0 65 G G 0.001003
0 65 G - 0.000002
0 65 - A 0.004905
0 65 - C 0.003797
0 65 - U 0.007870
0 65 - G -0.174591
0 65 - - 0.000004
0 66 A A 0.000007
0 66 A C -0.000002
0 66 A U 0.000005
0 66 A G 0.000005
0 66 A - 0.000005
0 66 C A 0.000005